*HEADING
Cantilever modal benchmark
*NODE
1, 0.0, 0.0, 0.0
2, 4.0, 0.0, 0.0
3, 4.0, 0.5, 0.0
4, 0.0, 0.5, 0.0
5, 0.12499999999976176, 0.0, 0.0
6, 0.24999999999949166, 0.0, 0.0
7, 0.3749999999992948, 0.0, 0.0
8, 0.49999999999909245, 0.0, 0.0
9, 0.6249999999987383, 0.0, 0.0
10, 0.7499999999983735, 0.0, 0.0
11, 0.8749999999980086, 0.0, 0.0
12, 0.9999999999976438, 0.0, 0.0
13, 1.1249999999972788, 0.0, 0.0
14, 1.249999999996914, 0.0, 0.0
15, 1.3749999999965492, 0.0, 0.0
16, 1.4999999999961844, 0.0, 0.0
17, 1.6249999999958196, 0.0, 0.0
18, 1.7499999999954545, 0.0, 0.0
19, 1.8749999999950897, 0.0, 0.0
20, 1.9999999999947684, 0.0, 0.0
21, 2.1249999999950546, 0.0, 0.0
22, 2.249999999995384, 0.0, 0.0
23, 2.374999999995714, 0.0, 0.0
24, 2.4999999999960436, 0.0, 0.0
25, 2.6249999999963736, 0.0, 0.0
26, 2.749999999996703, 0.0, 0.0
27, 2.8749999999970326, 0.0, 0.0
28, 2.9999999999973626, 0.0, 0.0
29, 3.124999999997692, 0.0, 0.0
30, 3.249999999998022, 0.0, 0.0
31, 3.3749999999983515, 0.0, 0.0
32, 3.499999999998681, 0.0, 0.0
33, 3.624999999999011, 0.0, 0.0
34, 3.7499999999993405, 0.0, 0.0
35, 3.8749999999996705, 0.0, 0.0
36, 4.0, 0.12499999999970547, 0.0
37, 4.0, 0.24999999999934605, 0.0
38, 4.0, 0.3749999999996703, 0.0
39, 3.8749999999994795, 0.5, 0.0
40, 3.749999999998959, 0.5, 0.0
41, 3.6249999999984386, 0.5, 0.0
42, 3.4999999999980047, 0.5, 0.0
43, 3.3749999999987854, 0.5, 0.0
44, 3.2499999999996527, 0.5, 0.0
45, 3.1250000000005205, 0.5, 0.0
46, 3.0000000000013882, 0.5, 0.0
47, 2.875000000002255, 0.5, 0.0
48, 2.750000000003122, 0.5, 0.0
49, 2.6250000000039893, 0.5, 0.0
50, 2.500000000004856, 0.5, 0.0
51, 2.3750000000057234, 0.5, 0.0
52, 2.2500000000065903, 0.5, 0.0
53, 2.125000000007457, 0.5, 0.0
54, 2.000000000008238, 0.5, 0.0
55, 1.875000000007804, 0.5, 0.0
56, 1.750000000007284, 0.5, 0.0
57, 1.6250000000067635, 0.5, 0.0
58, 1.5000000000062435, 0.5, 0.0
59, 1.375000000005723, 0.5, 0.0
60, 1.250000000005203, 0.5, 0.0
61, 1.1250000000046825, 0.5, 0.0
62, 1.000000000004162, 0.5, 0.0
63, 0.875000000003642, 0.5, 0.0
64, 0.7500000000031215, 0.5, 0.0
65, 0.6250000000026015, 0.5, 0.0
66, 0.500000000002081, 0.5, 0.0
67, 0.375000000001561, 0.5, 0.0
68, 0.2500000000010405, 0.5, 0.0
69, 0.12500000000052047, 0.5, 0.0
70, 0.0, 0.37500000000017353, 0.0
71, 0.0, 0.25000000000102973, 0.0
72, 0.0, 0.12500000000052025, 0.0
73, 0.12499999999995143, 0.12500000000049477, 0.0
74, 0.1250000000001411, 0.2500000000009771, 0.0
75, 0.1250000000003308, 0.3750000000001579, 0.0
76, 0.24999999999987882, 0.12500000000046935, 0.0
77, 0.25000000000026606, 0.2500000000009245, 0.0
78, 0.2500000000006533, 0.375000000000142, 0.0
79, 0.3749999999998612, 0.12500000000044387, 0.0
80, 0.3750000000004279, 0.25000000000087186, 0.0
81, 0.3750000000009944, 0.3750000000001263, 0.0
82, 0.4999999999998396, 0.1250000000004184, 0.0
83, 0.5000000000005868, 0.25000000000081923, 0.0
84, 0.5000000000013339, 0.3750000000001107, 0.0
85, 0.624999999999704, 0.12500000000039296, 0.0
86, 0.6250000000006699, 0.2500000000007667, 0.0
87, 0.6250000000016356, 0.375000000000095, 0.0
88, 0.7499999999995608, 0.12500000000036748, 0.0
89, 0.7500000000007475, 0.2500000000007141, 0.0
90, 0.7500000000019346, 0.3750000000000792, 0.0
91, 0.8749999999994168, 0.125000000000342, 0.0
92, 0.8750000000008255, 0.25000000000066147, 0.0
93, 0.8750000000022335, 0.3750000000000634, 0.0
94, 0.9999999999992735, 0.12500000000031658, 0.0
95, 1.0000000000009028, 0.25000000000060885, 0.0
96, 1.0000000000025326, 0.3750000000000477, 0.0
97, 1.1249999999991296, 0.1250000000002911, 0.0
98, 1.1250000000009805, 0.2500000000005562, 0.0
99, 1.1250000000028315, 0.3750000000000319, 0.0
100, 1.2499999999989861, 0.12500000000026562, 0.0
101, 1.2500000000010587, 0.2500000000005036, 0.0
102, 1.2500000000031308, 0.37500000000001626, 0.0
103, 1.3749999999988427, 0.1250000000002402, 0.0
104, 1.375000000001136, 0.250000000000451, 0.0
105, 1.3750000000034297, 0.3750000000000006, 0.0
106, 1.4999999999986993, 0.12500000000021472, 0.0
107, 1.5000000000012141, 0.25000000000039835, 0.0
108, 1.5000000000037286, 0.37499999999998485, 0.0
109, 1.6249999999985554, 0.12500000000018924, 0.0
110, 1.6250000000012919, 0.2500000000003457, 0.0
111, 1.6250000000040274, 0.3749999999999691, 0.0
112, 1.7499999999984117, 0.1250000000001638, 0.0
113, 1.7500000000013693, 0.2500000000002931, 0.0
114, 1.7500000000043263, 0.37499999999995326, 0.0
115, 1.8749999999982683, 0.12500000000013828, 0.0
116, 1.875000000001447, 0.2500000000002405, 0.0
117, 1.8750000000046254, 0.3749999999999376, 0.0
118, 1.9999999999981357, 0.12500000000011285, 0.0
119, 2.0000000000015032, 0.25000000000018785, 0.0
120, 2.0000000000048703, 0.3749999999999219, 0.0
121, 2.1249999999981553, 0.12500000000008743, 0.0
122, 2.125000000001256, 0.2500000000001352, 0.0
123, 2.1250000000043565, 0.37499999999990624, 0.0
124, 2.249999999998186, 0.12500000000006195, 0.0
125, 2.250000000000987, 0.2500000000000826, 0.0
126, 2.2500000000037885, 0.3749999999998905, 0.0
127, 2.3749999999982165, 0.12500000000003647, 0.0
128, 2.3750000000007194, 0.2500000000000301, 0.0
129, 2.3750000000032214, 0.3749999999998747, 0.0
130, 2.4999999999982467, 0.12500000000001105, 0.0
131, 2.5000000000004494, 0.24999999999997735, 0.0
132, 2.500000000002653, 0.37499999999985895, 0.0
133, 2.624999999998278, 0.12499999999998551, 0.0
134, 2.625000000000181, 0.24999999999992484, 0.0
135, 2.6250000000020854, 0.3749999999998433, 0.0
136, 2.749999999998308, 0.12499999999996009, 0.0
137, 2.749999999999913, 0.2499999999998722, 0.0
138, 2.750000000001517, 0.37499999999982764, 0.0
139, 2.8749999999983378, 0.12499999999993466, 0.0
140, 2.8749999999996443, 0.2499999999998196, 0.0
141, 2.875000000000949, 0.3749999999998119, 0.0
142, 2.9999999999983693, 0.12499999999990918, 0.0
143, 2.9999999999993756, 0.24999999999976696, 0.0
144, 3.000000000000381, 0.3749999999997961, 0.0
145, 3.1249999999983995, 0.1249999999998837, 0.0
146, 3.1249999999991065, 0.24999999999971434, 0.0
147, 3.1249999999998135, 0.37499999999978034, 0.0
148, 3.2499999999984297, 0.12499999999985822, 0.0
149, 3.2499999999988374, 0.24999999999966172, 0.0
150, 3.249999999999245, 0.3749999999997647, 0.0
151, 3.374999999998461, 0.12499999999983277, 0.0
152, 3.3749999999985687, 0.2499999999996091, 0.0
153, 3.3749999999986766, 0.37499999999974903, 0.0
154, 3.4999999999985127, 0.12499999999980732, 0.0
155, 3.499999999998343, 0.24999999999955652, 0.0
156, 3.4999999999981735, 0.37499999999973327, 0.0
157, 3.624999999998868, 0.12499999999978187, 0.0
158, 3.624999999998724, 0.2499999999995039, 0.0
159, 3.624999999998582, 0.3749999999997175, 0.0
160, 3.749999999999245, 0.12499999999975639, 0.0
161, 3.74999999999915, 0.24999999999945133, 0.0
162, 3.749999999999054, 0.37499999999970174, 0.0
163, 3.874999999999622, 0.12499999999973094, 0.0
164, 3.874999999999575, 0.24999999999939865, 0.0
165, 3.874999999999527, 0.374999999999686, 0.0
*ELEMENT, TYPE=CPS4, ELSET=EALL
1, 1, 5, 73, 72
2, 72, 73, 74, 71
3, 71, 74, 75, 70
4, 70, 75, 69, 4
5, 5, 6, 76, 73
6, 73, 76, 77, 74
7, 74, 77, 78, 75
8, 75, 78, 68, 69
9, 6, 7, 79, 76
10, 76, 79, 80, 77
11, 77, 80, 81, 78
12, 78, 81, 67, 68
13, 7, 8, 82, 79
14, 79, 82, 83, 80
15, 80, 83, 84, 81
16, 81, 84, 66, 67
17, 8, 9, 85, 82
18, 82, 85, 86, 83
19, 83, 86, 87, 84
20, 84, 87, 65, 66
21, 9, 10, 88, 85
22, 85, 88, 89, 86
23, 86, 89, 90, 87
24, 87, 90, 64, 65
25, 10, 11, 91, 88
26, 88, 91, 92, 89
27, 89, 92, 93, 90
28, 90, 93, 63, 64
29, 11, 12, 94, 91
30, 91, 94, 95, 92
31, 92, 95, 96, 93
32, 93, 96, 62, 63
33, 12, 13, 97, 94
34, 94, 97, 98, 95
35, 95, 98, 99, 96
36, 96, 99, 61, 62
37, 13, 14, 100, 97
38, 97, 100, 101, 98
39, 98, 101, 102, 99
40, 99, 102, 60, 61
41, 14, 15, 103, 100
42, 100, 103, 104, 101
43, 101, 104, 105, 102
44, 102, 105, 59, 60
45, 15, 16, 106, 103
46, 103, 106, 107, 104
47, 104, 107, 108, 105
48, 105, 108, 58, 59
49, 16, 17, 109, 106
50, 106, 109, 110, 107
51, 107, 110, 111, 108
52, 108, 111, 57, 58
53, 17, 18, 112, 109
54, 109, 112, 113, 110
55, 110, 113, 114, 111
56, 111, 114, 56, 57
57, 18, 19, 115, 112
58, 112, 115, 116, 113
59, 113, 116, 117, 114
60, 114, 117, 55, 56
61, 19, 20, 118, 115
62, 115, 118, 119, 116
63, 116, 119, 120, 117
64, 117, 120, 54, 55
65, 20, 21, 121, 118
66, 118, 121, 122, 119
67, 119, 122, 123, 120
68, 120, 123, 53, 54
69, 21, 22, 124, 121
70, 121, 124, 125, 122
71, 122, 125, 126, 123
72, 123, 126, 52, 53
73, 22, 23, 127, 124
74, 124, 127, 128, 125
75, 125, 128, 129, 126
76, 126, 129, 51, 52
77, 23, 24, 130, 127
78, 127, 130, 131, 128
79, 128, 131, 132, 129
80, 129, 132, 50, 51
81, 24, 25, 133, 130
82, 130, 133, 134, 131
83, 131, 134, 135, 132
84, 132, 135, 49, 50
85, 25, 26, 136, 133
86, 133, 136, 137, 134
87, 134, 137, 138, 135
88, 135, 138, 48, 49
89, 26, 27, 139, 136
90, 136, 139, 140, 137
91, 137, 140, 141, 138
92, 138, 141, 47, 48
93, 27, 28, 142, 139
94, 139, 142, 143, 140
95, 140, 143, 144, 141
96, 141, 144, 46, 47
97, 28, 29, 145, 142
98, 142, 145, 146, 143
99, 143, 146, 147, 144
100, 144, 147, 45, 46
101, 29, 30, 148, 145
102, 145, 148, 149, 146
103, 146, 149, 150, 147
104, 147, 150, 44, 45
105, 30, 31, 151, 148
106, 148, 151, 152, 149
107, 149, 152, 153, 150
108, 150, 153, 43, 44
109, 31, 32, 154, 151
110, 151, 154, 155, 152
111, 152, 155, 156, 153
112, 153, 156, 42, 43
113, 32, 33, 157, 154
114, 154, 157, 158, 155
115, 155, 158, 159, 156
116, 156, 159, 41, 42
117, 33, 34, 160, 157
118, 157, 160, 161, 158
119, 158, 161, 162, 159
120, 159, 162, 40, 41
121, 34, 35, 163, 160
122, 160, 163, 164, 161
123, 161, 164, 165, 162
124, 162, 165, 39, 40
125, 35, 2, 36, 163
126, 163, 36, 37, 164
127, 164, 37, 38, 165
128, 165, 38, 3, 39
*MATERIAL, NAME=STEEL
*ELASTIC
210000000000.0, 0.3
*DENSITY
7850.0
*SOLID SECTION, ELSET=EALL, MATERIAL=STEEL
0.1
*BOUNDARY
1, 1, 2, 0.0
4, 1, 2, 0.0
70, 1, 2, 0.0
71, 1, 2, 0.0
72, 1, 2, 0.0
*STEP
*FREQUENCY
5
*END STEP
