*HEADING
Column Seismic THA
*NODE
1, 0.0, 0.0, 0.0
2, 1.0, 0.0, 0.0
3, 1.0, 8.0, 0.0
4, 0.0, 8.0, 0.0
5, 0.24999999999941094, 0.0, 0.0
6, 0.4999999999986921, 0.0, 0.0
7, 0.7499999999993406, 0.0, 0.0
8, 1.0, 0.24999999999952352, 0.0
9, 1.0, 0.4999999999989833, 0.0
10, 1.0, 0.7499999999985896, 0.0
11, 1.0, 0.9999999999981849, 0.0
12, 1.0, 1.2499999999974767, 0.0
13, 1.0, 1.499999999996747, 0.0
14, 1.0, 1.7499999999960172, 0.0
15, 1.0, 1.9999999999952875, 0.0
16, 1.0, 2.2499999999945577, 0.0
17, 1.0, 2.499999999993828, 0.0
18, 1.0, 2.7499999999930984, 0.0
19, 1.0, 2.9999999999923688, 0.0
20, 1.0, 3.249999999991639, 0.0
21, 1.0, 3.499999999990909, 0.0
22, 1.0, 3.7499999999901794, 0.0
23, 1.0, 3.999999999989537, 0.0
24, 1.0, 4.249999999990109, 0.0
25, 1.0, 4.499999999990768, 0.0
26, 1.0, 4.749999999991428, 0.0
27, 1.0, 4.999999999992087, 0.0
28, 1.0, 5.249999999992747, 0.0
29, 1.0, 5.499999999993406, 0.0
30, 1.0, 5.749999999994065, 0.0
31, 1.0, 5.999999999994725, 0.0
32, 1.0, 6.249999999995384, 0.0
33, 1.0, 6.499999999996044, 0.0
34, 1.0, 6.749999999996703, 0.0
35, 1.0, 6.999999999997362, 0.0
36, 1.0, 7.249999999998022, 0.0
37, 1.0, 7.499999999998681, 0.0
38, 1.0, 7.749999999999341, 0.0
39, 0.7500000000003471, 8.0, 0.0
40, 0.5000000000020595, 8.0, 0.0
41, 0.2500000000010405, 8.0, 0.0
42, 0.0, 7.749999999998959, 0.0
43, 0.0, 7.499999999997918, 0.0
44, 0.0, 7.249999999996877, 0.0
45, 0.0, 6.999999999996009, 0.0
46, 0.0, 6.749999999997571, 0.0
47, 0.0, 6.4999999999993054, 0.0
48, 0.0, 6.250000000001041, 0.0
49, 0.0, 6.0000000000027764, 0.0
50, 0.0, 5.75000000000451, 0.0
51, 0.0, 5.500000000006244, 0.0
52, 0.0, 5.2500000000079785, 0.0
53, 0.0, 5.000000000009712, 0.0
54, 0.0, 4.750000000011447, 0.0
55, 0.0, 4.500000000013181, 0.0
56, 0.0, 4.250000000014914, 0.0
57, 0.0, 4.000000000016476, 0.0
58, 0.0, 3.750000000015608, 0.0
59, 0.0, 3.500000000014568, 0.0
60, 0.0, 3.250000000013527, 0.0
61, 0.0, 3.000000000012487, 0.0
62, 0.0, 2.750000000011446, 0.0
63, 0.0, 2.500000000010406, 0.0
64, 0.0, 2.250000000009365, 0.0
65, 0.0, 2.000000000008324, 0.0
66, 0.0, 1.750000000007284, 0.0
67, 0.0, 1.500000000006243, 0.0
68, 0.0, 1.250000000005203, 0.0
69, 0.0, 1.000000000004162, 0.0
70, 0.0, 0.750000000003122, 0.0
71, 0.0, 0.500000000002081, 0.0
72, 0.0, 0.25000000000104095, 0.0
73, 0.24999999999946187, 0.2500000000006616, 0.0
74, 0.24999999999951278, 0.5000000000013066, 0.0
75, 0.24999999999956374, 0.7500000000019889, 0.0
76, 0.24999999999961464, 1.0000000000026674, 0.0
77, 0.24999999999966555, 1.2500000000032712, 0.0
78, 0.24999999999971645, 1.5000000000038693, 0.0
79, 0.2499999999997674, 1.7500000000044673, 0.0
80, 0.24999999999981826, 2.0000000000050644, 0.0
81, 0.24999999999986922, 2.250000000005663, 0.0
82, 0.24999999999992017, 2.5000000000062617, 0.0
83, 0.24999999999997102, 2.7500000000068594, 0.0
84, 0.2500000000000221, 3.000000000007457, 0.0
85, 0.25000000000007294, 3.250000000008055, 0.0
86, 0.2500000000001239, 3.500000000008653, 0.0
87, 0.25000000000017475, 3.7500000000092517, 0.0
88, 0.2500000000002257, 4.000000000009741, 0.0
89, 0.25000000000027667, 4.250000000008713, 0.0
90, 0.2500000000003276, 4.500000000007577, 0.0
91, 0.2500000000003785, 4.750000000006441, 0.0
92, 0.25000000000042943, 5.000000000005306, 0.0
93, 0.2500000000004804, 5.250000000004171, 0.0
94, 0.25000000000053124, 5.500000000003034, 0.0
95, 0.2500000000005822, 5.750000000001898, 0.0
96, 0.25000000000063316, 6.000000000000764, 0.0
97, 0.250000000000684, 6.249999999999627, 0.0
98, 0.25000000000073497, 6.49999999999849, 0.0
99, 0.2500000000007859, 6.749999999997353, 0.0
100, 0.2500000000008368, 6.999999999996347, 0.0
101, 0.25000000000088773, 7.249999999997164, 0.0
102, 0.2500000000009387, 7.499999999998108, 0.0
103, 0.25000000000098954, 7.749999999999056, 0.0
104, 0.4999999999987973, 0.2500000000002822, 0.0
105, 0.49999999999890254, 0.5000000000005321, 0.0
106, 0.4999999999990078, 0.7500000000008558, 0.0
107, 0.49999999999911304, 1.0000000000011735, 0.0
108, 0.4999999999992183, 1.2500000000013398, 0.0
109, 0.49999999999932343, 1.500000000001495, 0.0
110, 0.4999999999994287, 1.750000000001651, 0.0
111, 0.49999999999953393, 2.0000000000018057, 0.0
112, 0.4999999999996392, 2.250000000001961, 0.0
113, 0.4999999999997444, 2.5000000000021174, 0.0
114, 0.4999999999998497, 2.750000000002272, 0.0
115, 0.4999999999999549, 3.0000000000024283, 0.0
116, 0.5000000000000602, 3.250000000002583, 0.0
117, 0.5000000000001654, 3.5000000000027387, 0.0
118, 0.5000000000002705, 3.750000000002894, 0.0
119, 0.5000000000003757, 4.0000000000030065, 0.0
120, 0.500000000000481, 4.250000000002512, 0.0
121, 0.5000000000005862, 4.500000000001974, 0.0
122, 0.5000000000006914, 4.750000000001437, 0.0
123, 0.5000000000007967, 5.000000000000901, 0.0
124, 0.500000000000902, 5.250000000000362, 0.0
125, 0.5000000000010072, 5.499999999999826, 0.0
126, 0.5000000000011124, 5.749999999999287, 0.0
127, 0.5000000000012177, 5.999999999998751, 0.0
128, 0.5000000000013229, 6.249999999998213, 0.0
129, 0.5000000000014282, 6.499999999997675, 0.0
130, 0.5000000000015334, 6.749999999997136, 0.0
131, 0.5000000000016385, 6.999999999996684, 0.0
132, 0.5000000000017437, 7.249999999997448, 0.0
133, 0.500000000001849, 7.4999999999983, 0.0
134, 0.5000000000019542, 7.74999999999915, 0.0
135, 0.7499999999993721, 0.24999999999990286, 0.0
136, 0.7499999999994034, 0.49999999999975764, 0.0
137, 0.749999999999435, 0.7499999999997227, 0.0
138, 0.7499999999994664, 0.9999999999996791, 0.0
139, 0.7499999999994978, 1.2499999999994085, 0.0
140, 0.7499999999995292, 1.499999999999121, 0.0
141, 0.7499999999995608, 1.7499999999988334, 0.0
142, 0.7499999999995922, 1.999999999998547, 0.0
143, 0.7499999999996237, 2.24999999999826, 0.0
144, 0.7499999999996553, 2.4999999999979723, 0.0
145, 0.7499999999996866, 2.7499999999976854, 0.0
146, 0.7499999999997179, 2.9999999999973985, 0.0
147, 0.7499999999997494, 3.2499999999971108, 0.0
148, 0.7499999999997808, 3.499999999996823, 0.0
149, 0.7499999999998124, 3.7499999999965365, 0.0
150, 0.749999999999844, 3.9999999999962714, 0.0
151, 0.7499999999998751, 4.2499999999963105, 0.0
152, 0.7499999999999066, 4.499999999996372, 0.0
153, 0.7499999999999382, 4.749999999996433, 0.0
154, 0.7499999999999697, 4.9999999999964935, 0.0
155, 0.7500000000000012, 5.249999999996556, 0.0
156, 0.7500000000000325, 5.499999999996616, 0.0
157, 0.7500000000000641, 5.7499999999966755, 0.0
158, 0.7500000000000954, 5.999999999996739, 0.0
159, 0.7500000000001269, 6.249999999996799, 0.0
160, 0.7500000000001584, 6.499999999996859, 0.0
161, 0.7500000000001897, 6.749999999996918, 0.0
162, 0.7500000000002213, 6.999999999997024, 0.0
163, 0.7500000000002528, 7.249999999997736, 0.0
164, 0.7500000000002841, 7.49999999999849, 0.0
165, 0.7500000000003156, 7.749999999999244, 0.0
*ELEMENT, TYPE=CPS4, ELSET=EALL
1, 1, 5, 73, 72
2, 72, 73, 74, 71
3, 71, 74, 75, 70
4, 70, 75, 76, 69
5, 69, 76, 77, 68
6, 68, 77, 78, 67
7, 67, 78, 79, 66
8, 66, 79, 80, 65
9, 65, 80, 81, 64
10, 64, 81, 82, 63
11, 63, 82, 83, 62
12, 62, 83, 84, 61
13, 61, 84, 85, 60
14, 60, 85, 86, 59
15, 59, 86, 87, 58
16, 58, 87, 88, 57
17, 57, 88, 89, 56
18, 56, 89, 90, 55
19, 55, 90, 91, 54
20, 54, 91, 92, 53
21, 53, 92, 93, 52
22, 52, 93, 94, 51
23, 51, 94, 95, 50
24, 50, 95, 96, 49
25, 49, 96, 97, 48
26, 48, 97, 98, 47
27, 47, 98, 99, 46
28, 46, 99, 100, 45
29, 45, 100, 101, 44
30, 44, 101, 102, 43
31, 43, 102, 103, 42
32, 42, 103, 41, 4
33, 5, 6, 104, 73
34, 73, 104, 105, 74
35, 74, 105, 106, 75
36, 75, 106, 107, 76
37, 76, 107, 108, 77
38, 77, 108, 109, 78
39, 78, 109, 110, 79
40, 79, 110, 111, 80
41, 80, 111, 112, 81
42, 81, 112, 113, 82
43, 82, 113, 114, 83
44, 83, 114, 115, 84
45, 84, 115, 116, 85
46, 85, 116, 117, 86
47, 86, 117, 118, 87
48, 87, 118, 119, 88
49, 88, 119, 120, 89
50, 89, 120, 121, 90
51, 90, 121, 122, 91
52, 91, 122, 123, 92
53, 92, 123, 124, 93
54, 93, 124, 125, 94
55, 94, 125, 126, 95
56, 95, 126, 127, 96
57, 96, 127, 128, 97
58, 97, 128, 129, 98
59, 98, 129, 130, 99
60, 99, 130, 131, 100
61, 100, 131, 132, 101
62, 101, 132, 133, 102
63, 102, 133, 134, 103
64, 103, 134, 40, 41
65, 6, 7, 135, 104
66, 104, 135, 136, 105
67, 105, 136, 137, 106
68, 106, 137, 138, 107
69, 107, 138, 139, 108
70, 108, 139, 140, 109
71, 109, 140, 141, 110
72, 110, 141, 142, 111
73, 111, 142, 143, 112
74, 112, 143, 144, 113
75, 113, 144, 145, 114
76, 114, 145, 146, 115
77, 115, 146, 147, 116
78, 116, 147, 148, 117
79, 117, 148, 149, 118
80, 118, 149, 150, 119
81, 119, 150, 151, 120
82, 120, 151, 152, 121
83, 121, 152, 153, 122
84, 122, 153, 154, 123
85, 123, 154, 155, 124
86, 124, 155, 156, 125
87, 125, 156, 157, 126
88, 126, 157, 158, 127
89, 127, 158, 159, 128
90, 128, 159, 160, 129
91, 129, 160, 161, 130
92, 130, 161, 162, 131
93, 131, 162, 163, 132
94, 132, 163, 164, 133
95, 133, 164, 165, 134
96, 134, 165, 39, 40
97, 7, 2, 8, 135
98, 135, 8, 9, 136
99, 136, 9, 10, 137
100, 137, 10, 11, 138
101, 138, 11, 12, 139
102, 139, 12, 13, 140
103, 140, 13, 14, 141
104, 141, 14, 15, 142
105, 142, 15, 16, 143
106, 143, 16, 17, 144
107, 144, 17, 18, 145
108, 145, 18, 19, 146
109, 146, 19, 20, 147
110, 147, 20, 21, 148
111, 148, 21, 22, 149
112, 149, 22, 23, 150
113, 150, 23, 24, 151
114, 151, 24, 25, 152
115, 152, 25, 26, 153
116, 153, 26, 27, 154
117, 154, 27, 28, 155
118, 155, 28, 29, 156
119, 156, 29, 30, 157
120, 157, 30, 31, 158
121, 158, 31, 32, 159
122, 159, 32, 33, 160
123, 160, 33, 34, 161
124, 161, 34, 35, 162
125, 162, 35, 36, 163
126, 163, 36, 37, 164
127, 164, 37, 38, 165
128, 165, 38, 3, 39
*MATERIAL, NAME=CONCRETE
*ELASTIC
30000000000.0, 0.2
*DENSITY
2500.0
*DAMPING, ALPHA=0.749708, BETA=0.001657
*SOLID SECTION, ELSET=EALL, MATERIAL=CONCRETE
1.0
*BOUNDARY
1, 1, 2, 0.0
2, 1, 2, 0.0
5, 1, 2, 0.0
6, 1, 2, 0.0
7, 1, 2, 0.0
*NSET, NSET=NTOPMID
39,
*AMPLITUDE, NAME=EQACCEL
0.000000, 1.384986e-05, 0.010000, 1.370144e-05, 0.020000, 1.371164e-05, 0.030000, 1.358632e-05
0.040000, 1.362758e-05, 0.050000, 1.348084e-05, 0.060000, 1.350777e-05, 0.070000, 1.335431e-05
0.080000, 1.336329e-05, 0.090000, 1.319204e-05, 0.100000, 1.321089e-05, 0.110000, 1.336876e-05
0.120000, 1.291040e-05, 0.130000, 1.290835e-05, 0.140000, 1.296554e-05, 0.150000, 1.292887e-05
0.160000, 1.312229e-05, 0.170000, 1.278066e-05, 0.180000, 1.260035e-05, 0.190000, 1.272885e-05
0.200000, 1.252335e-05, 0.210000, 1.282529e-05, 0.220000, 1.268108e-05, 0.230000, 1.289200e-05
0.240000, 1.209890e-05, 0.250000, 1.235107e-05, 0.260000, 1.408872e-05, 0.270000, 9.444633e-06
0.280000, 1.448112e-05, 0.290000, 1.028404e-05, 0.300000, 1.464607e-05, 0.310000, 9.314499e-06
0.320000, 1.403986e-05, 0.330000, 8.397690e-06, 0.340000, 1.590734e-05, 0.350000, 6.246787e-06
0.360000, 1.528331e-05, 0.370000, 7.130820e-06, 0.380000, 1.536361e-05, 0.390000, 6.333094e-06
0.400000, 1.413436e-05, 0.410000, 7.309433e-06, 0.420000, 1.335384e-05, 0.430000, 4.777109e-06
0.440000, 1.463566e-05, 0.450000, 4.030371e-06, 0.460000, 1.940199e-05, 0.470000, 2.343460e-06
0.480000, 1.642989e-05, 0.490000, 4.509887e-06, 0.500000, 1.784801e-05, 0.510000, 1.632486e-06
0.520000, 1.664147e-05, 0.530000, 1.900291e-06, 0.540000, 2.048759e-05, 0.550000, 2.527654e-06
0.560000, 1.241381e-05, 0.570000, 1.028313e-05, 0.580000, 8.679659e-06, 0.590000, 9.733867e-06
0.600000, 8.775036e-06, 0.610000, 1.098275e-05, 0.620000, 1.106426e-05, 0.630000, 1.287249e-05
0.640000, 9.281041e-06, 0.650000, 5.537048e-06, 0.660000, 9.558058e-06, 0.670000, 8.787624e-06
0.680000, 1.027101e-05, 0.690000, 8.906280e-06, 0.700000, 1.136722e-05, 0.710000, 1.024810e-05
0.720000, 1.334940e-05, 0.730000, 1.156006e-05, 0.740000, -3.559781e-07, 0.750000, 8.705529e-06
0.760000, 1.721053e-05, 0.770000, 8.990435e-06, 0.780000, -1.157740e-07, 0.790000, 7.251152e-06
0.800000, 7.727517e-06, 0.810000, 1.397570e-05, 0.820000, 1.192319e-05, 0.830000, 6.128175e-06
0.840000, 6.031680e-06, 0.850000, 6.996833e-06, 0.860000, -7.159794e-06, 0.870000, 3.171157e-05
0.880000, -6.930162e-06, 0.890000, 1.934682e-05, 0.900000, -1.459173e-05, 0.910000, 2.466696e-05
0.920000, -1.235992e-05, 0.930000, 3.537778e-05, 0.940000, -1.158929e-05, 0.950000, 3.018095e-05
0.960000, -1.302420e-05, 0.970000, 2.320906e-05, 0.980000, -6.646696e-06, 0.990000, 1.654054e-05
1.000000, -1.558915e-05, 1.010000, 3.828781e-05, 1.020000, -2.293507e-05, 1.030000, 3.653311e-05
1.040000, -2.008148e-05, 1.050000, 2.920399e-05, 1.060000, -2.142149e-05, 1.070000, 2.791491e-05
1.080000, -2.473191e-05, 1.090000, 3.527161e-05, 1.100000, -2.619825e-05, 1.110000, 3.367775e-05
1.120000, -3.574754e-05, 1.130000, 4.847531e-05, 1.140000, -1.658863e-05, 1.150000, 3.581559e-05
1.160000, -3.092318e-05, 1.170000, 3.023860e-05, 1.180000, -9.609964e-07, 1.190000, -9.066739e-07
1.200000, 1.585033e-05, 1.210000, -5.321885e-06, 1.220000, 1.319002e-05, 1.230000, -9.873064e-06
1.240000, 1.419401e-05, 1.250000, 2.706036e-06, 1.260000, 3.541757e-06, 1.270000, 5.190259e-06
1.280000, 1.568247e-05, 1.290000, -6.182515e-06, 1.300000, 9.243755e-08, 1.310000, 3.146580e-06
1.320000, 9.124740e-06, 1.330000, -7.943243e-07, 1.340000, -6.480702e-06, 1.350000, -2.291762e-06
1.360000, 4.895262e-06, 1.370000, -1.523325e-05, 1.380000, 1.835483e-05, 1.390000, -9.780385e-06
1.400000, 9.436605e-06, 1.410000, -1.473949e-05, 1.420000, 9.066274e-06, 1.430000, -6.749990e-06
1.440000, 1.966770e-05, 1.450000, -9.836803e-06, 1.460000, 9.625698e-06, 1.470000, 2.642506e-05
1.480000, 6.651183e-05, 1.490000, -4.034807e-05, 1.500000, 4.396874e-05, 1.510000, -2.940726e-05
1.520000, 4.916757e-05, 1.530000, -5.287811e-05, 1.540000, 4.074628e-05, 1.550000, -4.031891e-05
1.560000, 7.234715e-05, 1.570000, -7.399621e-05, 1.580000, 3.672254e-05, 1.590000, -5.059810e-05
1.600000, 7.012350e-05, 1.610000, -6.056133e-05, 1.620000, 6.308342e-05, 1.630000, -7.064217e-05
1.640000, 6.040321e-05, 1.650000, -5.514987e-05, 1.660000, 7.626076e-05, 1.670000, -5.711448e-05
1.680000, 6.943116e-05, 1.690000, -7.035213e-05, 1.700000, 3.711983e-05, 1.710000, -5.039050e-05
1.720000, 6.791918e-05, 1.730000, -5.586902e-05, 1.740000, 6.022025e-05, 1.750000, -9.028115e-05
1.760000, 8.799907e-05, 1.770000, -1.133071e-04, 1.780000, -5.494852e-03, 1.790000, 9.395302e-05
1.800000, 1.695407e-05, 1.810000, 7.335213e-05, 1.820000, 4.584543e-05, 1.830000, 9.720749e-05
1.840000, 4.071668e-05, 1.850000, 5.551756e-05, 1.860000, 2.677703e-05, 1.870000, 6.031525e-05
1.880000, 5.509442e-05, 1.890000, 7.640144e-05, 1.900000, 1.890179e-05, 1.910000, 6.380177e-05
1.920000, 5.795975e-05, 1.930000, 5.130556e-05, 1.940000, 3.697438e-05, 1.950000, 7.144241e-05
1.960000, 3.141852e-05, 1.970000, 9.033486e-05, 1.980000, 4.494126e-05, 1.990000, 7.765274e-05
2.000000, 1.883139e-05, 2.010000, 5.446059e-05, 2.020000, 2.815449e-05, 2.030000, 9.963258e-05
2.040000, 1.207290e-05, 2.050000, 8.695677e-05, 2.060000, 3.381768e-05, 2.070000, 4.765906e-05
2.080000, 5.207985e-05, 2.090000, 9.553550e-05, 2.100000, -2.171672e-05, 2.110000, 1.275495e-04
2.120000, -4.293122e-05, 2.130000, 1.426921e-04, 2.140000, -1.126951e-05, 2.150000, 1.303831e-04
2.160000, -2.928699e-05, 2.170000, 7.844789e-05, 2.180000, -3.348846e-05, 2.190000, 1.213853e-04
2.200000, -1.143226e-05, 2.210000, 1.222063e-04, 2.220000, 4.505425e-06, 2.230000, 1.363559e-04
2.240000, -3.852705e-05, 2.250000, 1.338178e-04, 2.260000, -6.074742e-05, 2.270000, 1.324164e-04
2.280000, -2.973664e-05, 2.290000, 1.656661e-04, 2.300000, -3.973067e-05, 2.310000, 1.185060e-04
2.320000, -4.453950e-05, 2.330000, 1.833164e-04, 2.340000, -1.856330e-05, 2.350000, 8.966033e-05
2.360000, -6.714453e-05, 2.370000, 1.664509e-04, 2.380000, -3.017895e-05, 2.390000, -7.304598e-03
2.400000, 1.489973e-04, 2.410000, 1.090703e-04, 2.420000, 1.225413e-04, 2.430000, 1.048021e-04
2.440000, 1.492009e-04, 2.450000, 7.596855e-05, 2.460000, 1.304914e-04, 2.470000, 7.703976e-05
2.480000, 1.206490e-04, 2.490000, 1.042843e-04, 2.500000, 1.552110e-04, 2.510000, 8.038473e-05
2.520000, 7.994493e-05, 2.530000, 7.403697e-05, 2.540000, 1.163838e-04, 2.550000, 8.782409e-05
2.560000, 1.447066e-04, 2.570000, 7.177400e-05, 2.580000, 1.652410e-04, 2.590000, 3.288985e-05
2.600000, 1.290057e-04, 2.610000, 8.044014e-05, 2.620000, 1.170032e-04, 2.630000, 5.673832e-05
2.640000, 1.330619e-04, 2.650000, 8.347560e-05, 2.660000, 1.576121e-04, 2.670000, 7.803051e-05
2.680000, 1.294409e-04, 2.690000, 6.702935e-05, 2.700000, 1.641159e-04, 2.710000, 1.196799e-05
2.720000, 1.912044e-04, 2.730000, -2.905777e-05, 2.740000, 1.976196e-04, 2.750000, 1.879026e-05
2.760000, 1.893809e-04, 2.770000, -3.417086e-05, 2.780000, 2.077328e-04, 2.790000, -1.271632e-06
2.800000, 1.856314e-04, 2.810000, -1.318009e-05, 2.820000, 2.216302e-04, 2.830000, -5.725887e-07
2.840000, 1.824493e-04, 2.850000, -2.842819e-05, 2.860000, 1.818125e-04, 2.870000, -1.225015e-05
2.880000, 1.630322e-04, 2.890000, -1.390586e-05, 2.900000, 2.211076e-04, 2.910000, -2.228753e-05
2.920000, 1.642898e-04, 2.930000, 2.982928e-05, 2.940000, 1.631020e-04, 2.950000, 2.069798e-05
2.960000, 1.461205e-04, 2.970000, 6.859894e-06, 2.980000, 1.922121e-04, 2.990000, -5.967993e-07
3.000000, 4.190125e-05, 3.010000, 1.192889e-04, 3.020000, 5.874897e-05, 3.030000, 1.063864e-04
3.040000, 9.260460e-05, 3.050000, 1.120517e-04, 3.060000, 6.835265e-05, 3.070000, 9.901927e-05
3.080000, 6.039758e-05, 3.090000, 1.050516e-04, 3.100000, 3.951458e-05, 3.110000, 1.471070e-04
3.120000, 4.219895e-05, 3.130000, 1.379572e-04, 3.140000, 4.496925e-05, 3.150000, 1.328116e-04
3.160000, 7.364089e-05, 3.170000, 1.034607e-04, 3.180000, 6.459823e-05, 3.190000, 1.451482e-04
3.200000, 1.526944e-05, 3.210000, 1.422545e-04, 3.220000, 5.599579e-05, 3.230000, 9.305044e-05
3.240000, 5.015586e-05, 3.250000, 1.060806e-04, 3.260000, 5.812962e-05, 3.270000, 9.894666e-05
3.280000, 2.132955e-05, 3.290000, 1.510125e-04, 3.300000, 1.611627e-05, 3.310000, 2.085972e-04
3.320000, -2.958240e-05, 3.330000, 1.387876e-04, 3.340000, 1.162298e-05, 3.350000, 1.347480e-04
3.360000, -1.919574e-05, 3.370000, 1.600069e-04, 3.380000, -4.304642e-06, 3.390000, 1.061988e-04
3.400000, 9.120412e-06, 3.410000, 1.014592e-04, 3.420000, -1.137850e-05, 3.430000, 1.288483e-04
3.440000, -3.698707e-05, 3.450000, 1.981036e-04, 3.460000, -3.635299e-05, 3.470000, 1.322987e-04
3.480000, -8.016024e-06, 3.490000, 1.393865e-04, 3.500000, -4.974697e-05, 3.510000, 1.588871e-04
3.520000, -2.748189e-06, 3.530000, 1.318276e-04, 3.540000, -2.053304e-05, 3.550000, 1.739120e-04
3.560000, -5.365310e-05, 3.570000, 1.413675e-04, 3.580000, -2.637411e-05, 3.590000, 1.306773e-04
3.600000, -1.917511e-05, 3.610000, 1.260695e-04, 3.620000, 7.652378e-05, 3.630000, 2.776016e-05
3.640000, 5.698983e-05, 3.650000, 4.323566e-06, 3.660000, 9.757126e-05, 3.670000, -1.447723e-06
3.680000, 6.812210e-05, 3.690000, -6.757940e-06, 3.700000, 1.215893e-04, 3.710000, -1.570245e-05
3.720000, 5.918517e-05, 3.730000, 5.112939e-06, 3.740000, 1.165212e-04, 3.750000, -1.382106e-05
3.760000, 9.294960e-05, 3.770000, 8.540401e-06, 3.780000, 9.419925e-05, 3.790000, 3.664902e-05
3.800000, 1.070137e-04, 3.810000, -8.334097e-06, 3.820000, 1.202745e-04, 3.830000, 1.862295e-05
3.840000, 1.171343e-04, 3.850000, -5.424897e-06, 3.860000, 9.040457e-05, 3.870000, 2.910058e-06
3.880000, 9.862266e-05, 3.890000, 1.304011e-05, 3.900000, 8.772778e-05, 3.910000, 5.313908e-06
3.920000, 1.357311e-04, 3.930000, -3.481106e-05, 3.940000, 8.122872e-05, 3.950000, 4.783469e-06
3.960000, 1.640565e-04, 3.970000, -6.055635e-05, 3.980000, 1.284911e-04, 3.990000, -4.023511e-05
4.000000, 1.078761e-04, 4.010000, -3.180249e-05, 4.020000, 1.232019e-04, 4.030000, 8.207960e-06
4.040000, 1.169657e-04, 4.050000, -6.258214e-05, 4.060000, 1.285914e-04, 4.070000, -3.035145e-05
4.080000, 8.988381e-05, 4.090000, -5.369589e-05, 4.100000, 1.045576e-04, 4.110000, -7.999640e-05
4.120000, 1.492934e-04, 4.130000, -4.589201e-05, 4.140000, 1.015990e-04, 4.150000, -6.922442e-05
4.160000, 1.243369e-04, 4.170000, -2.597496e-05, 4.180000, 1.333963e-04, 4.190000, -5.292662e-05
4.200000, 9.394520e-05, 4.210000, -4.336066e-05, 4.220000, 1.523703e-04, 4.230000, 4.589713e-05
4.240000, -4.657309e-05, 4.250000, 1.248287e-04, 4.260000, -1.572025e-05, 4.270000, 8.007998e-05
4.280000, -3.426847e-06, 4.290000, 7.637209e-05, 4.300000, -9.131964e-06, 4.310000, 8.669074e-05
4.320000, -3.961799e-06, 4.330000, 6.497276e-05, 4.340000, -3.843330e-05, 4.350000, 4.484667e-05
4.360000, -9.623837e-06, 4.370000, 6.834823e-05, 4.380000, -7.246793e-06, 4.390000, 7.966253e-05
4.400000, -3.091681e-05, 4.410000, 3.638522e-05, 4.420000, -5.983363e-05, 4.430000, 4.660862e-05
4.440000, -9.952860e-06, 4.450000, 8.800745e-05, 4.460000, -8.809177e-06, 4.470000, 3.544933e-05
4.480000, -2.593118e-05, 4.490000, 8.013598e-05, 4.500000, 1.422972e-05, 4.510000, 3.729856e-05
4.520000, 1.576352e-05, 4.530000, 6.846173e-05, 4.540000, -3.983395e-05, 4.550000, 1.139399e-04
4.560000, -4.570219e-05, 4.570000, 8.933100e-05, 4.580000, -6.511080e-05, 4.590000, 1.209211e-04
4.600000, -2.599873e-05, 4.610000, 1.148791e-04, 4.620000, -6.877206e-05, 4.630000, 1.103686e-04
4.640000, -1.061607e-04, 4.650000, 1.013939e-04, 4.660000, -3.459914e-05, 4.670000, 1.104959e-04
4.680000, -1.021733e-04, 4.690000, 8.953157e-05, 4.700000, -3.551420e-05, 4.710000, 5.195277e-05
4.720000, -7.648523e-05, 4.730000, 1.237441e-04, 4.740000, -1.020858e-04, 4.750000, 1.006384e-04
4.760000, -6.739981e-05, 4.770000, 7.829164e-05, 4.780000, -8.752733e-05, 4.790000, 1.131758e-04
4.800000, -6.511564e-05, 4.810000, 6.186061e-05, 4.820000, -8.411967e-05, 4.830000, 1.427626e-04
4.840000, 6.619060e-05, 4.850000, -3.854647e-06, 4.860000, 4.663924e-05, 4.870000, -2.936233e-05
4.880000, 8.619832e-05, 4.890000, -6.901951e-05, 4.900000, 8.499729e-05, 4.910000, -5.652640e-05
4.920000, 6.174339e-05, 4.930000, -2.691573e-05, 4.940000, 4.627580e-05, 4.950000, -6.609595e-05
4.960000, 4.634645e-05, 4.970000, -1.129198e-04, 4.980000, -3.270671e-05, 4.990000, -1.773272e-04
5.000000, -1.242648e-04, 5.010000, -3.048313e-04, 5.020000, -3.041263e-04, 5.030000, -5.684856e-04
5.040000, -5.698369e-04, 5.050000, -6.802409e-04, 5.060000, -5.240850e-04, 5.070000, -3.543284e-04
5.080000, -4.536939e-05, 5.090000, 2.311647e-04, 5.100000, 1.075915e-03, 5.110000, 2.025268e-03
5.120000, 2.792196e-03, 5.130000, 2.621653e-03, 5.140000, 1.967879e-03, 5.150000, 1.247020e-03
5.160000, 2.115922e-04, 5.170000, -1.330449e-03, 5.180000, -3.177606e-03, 5.190000, -5.979795e-03
5.200000, -7.215620e-03, 5.210000, -4.532940e-03, 5.220000, -1.472599e-03, 5.230000, -1.190399e-04
5.240000, 1.588924e-03, 5.250000, 1.485948e-03, 5.260000, 1.915417e-05, 5.270000, -2.228110e-03
5.280000, -4.047076e-03, 5.290000, -9.801624e-03, 5.300000, -1.728896e-02, 5.310000, -1.995523e-02
5.320000, -2.149402e-02, 5.330000, -2.482669e-02, 5.340000, -1.656579e-02, 5.350000, -4.512489e-03
5.360000, -2.353046e-03, 5.370000, -9.264177e-03, 5.380000, -1.281831e-03, 5.390000, 9.657002e-03
5.400000, 1.349142e-03, 5.410000, -8.886794e-03, 5.420000, -9.575327e-03, 5.430000, -1.288062e-02
5.440000, -2.619235e-02, 5.450000, -2.584502e-02, 5.460000, -1.677705e-02, 5.470000, -3.118956e-03
5.480000, 3.361824e-04, 5.490000, 9.088735e-03, 5.500000, 1.875032e-02, 5.510000, 2.941629e-02
5.520000, 2.545824e-02, 5.530000, 8.924239e-03, 5.540000, -1.224563e-02, 5.550000, -2.297391e-02
5.560000, -1.670203e-02, 5.570000, 4.757957e-03, 5.580000, -1.088813e-03, 5.590000, -1.349895e-02
5.600000, -1.267891e-02, 5.610000, 1.837124e-03, 5.620000, 9.154304e-03, 5.630000, -2.085163e-03
5.640000, -2.758390e-03, 5.650000, 2.886014e-03, 5.660000, -6.003023e-03, 5.670000, -9.293895e-03
5.680000, 3.374089e-03, 5.690000, 1.688867e-02, 5.700000, 4.553577e-03, 5.710000, -3.234162e-02
5.720000, -4.500162e-02, 5.730000, -2.709656e-02, 5.740000, -2.680818e-02, 5.750000, -3.159296e-02
5.760000, -2.853208e-02, 5.770000, -1.258883e-02, 5.780000, -5.237375e-03, 5.790000, -1.216121e-02
5.800000, -1.254188e-02, 5.810000, 5.349278e-03, 5.820000, -1.962024e-02, 5.830000, -4.550047e-02
5.840000, -2.112743e-02, 5.850000, 1.301770e-02, 5.860000, 8.056126e-03, 5.870000, -7.721165e-03
5.880000, -5.142856e-03, 5.890000, -2.141876e-02, 5.900000, -3.301053e-02, 5.910000, -2.535040e-02
5.920000, -9.990162e-03, 5.930000, -8.439506e-03, 5.940000, -2.006277e-03, 5.950000, 2.604788e-02
5.960000, 5.508142e-02, 5.970000, 5.271764e-02, 5.980000, 8.972064e-03, 5.990000, -2.119984e-02
6.000000, -5.924939e-03, 6.010000, -6.234256e-03, 6.020000, -2.991179e-02, 6.030000, -2.591465e-02
6.040000, -1.524952e-02, 6.050000, -9.598740e-03, 6.060000, -1.063480e-03, 6.070000, 1.179015e-02
6.080000, 3.049925e-02, 6.090000, 4.173104e-02, 6.100000, 1.955448e-02, 6.110000, 2.290051e-02
6.120000, 1.785309e-02, 6.130000, 7.825925e-03, 6.140000, 8.879989e-03, 6.150000, -1.282197e-03
6.160000, -6.832533e-03, 6.170000, 5.669058e-04, 6.180000, 1.179617e-02, 6.190000, 1.617540e-02
6.200000, 2.453725e-02, 6.210000, 2.557670e-02, 6.220000, 3.814243e-02, 6.230000, 4.130562e-02
6.240000, 1.313109e-02, 6.250000, -4.978526e-03, 6.260000, -1.774689e-02, 6.270000, -2.497115e-02
6.280000, -3.381155e-02, 6.290000, -3.826210e-02, 6.300000, -3.664714e-03, 6.310000, 2.556955e-02
6.320000, 1.825181e-02, 6.330000, 1.445843e-02, 6.340000, 3.135817e-02, 6.350000, 2.865707e-02
6.360000, -6.688506e-03, 6.370000, -2.872171e-02, 6.380000, -5.246277e-02, 6.390000, -3.927033e-02
6.400000, -2.496396e-02, 6.410000, -2.698585e-02, 6.420000, -2.282482e-02, 6.430000, -5.559499e-03
6.440000, 7.099729e-03, 6.450000, 5.831657e-03, 6.460000, 6.043919e-03, 6.470000, 1.551122e-02
6.480000, 2.008417e-02, 6.490000, 8.536051e-03, 6.500000, 9.281710e-03, 6.510000, 2.501286e-02
6.520000, 3.221509e-02, 6.530000, 2.300150e-02, 6.540000, 1.420443e-02, 6.550000, 3.464834e-02
6.560000, 5.086334e-02, 6.570000, 3.351310e-02, 6.580000, 3.269003e-02, 6.590000, 5.104618e-02
6.600000, 5.451659e-02, 6.610000, 3.309908e-02, 6.620000, 1.058546e-02, 6.630000, 9.173927e-03
6.640000, 9.604677e-03, 6.650000, 8.803407e-04, 6.660000, -3.499237e-03, 6.670000, -3.431442e-03
6.680000, -5.527384e-03, 6.690000, -1.214766e-02, 6.700000, -7.812835e-03, 6.710000, 5.215945e-03
6.720000, 1.109479e-02, 6.730000, 4.461775e-03, 6.740000, 9.007274e-03, 6.750000, 7.637542e-03
6.760000, 7.416425e-03, 6.770000, -8.653889e-04, 6.780000, -8.690869e-03, 6.790000, -6.123142e-03
6.800000, -1.193476e-02, 6.810000, -3.692756e-03, 6.820000, 1.283779e-02, 6.830000, 1.230950e-02
6.840000, 5.208500e-03, 6.850000, 3.600418e-03, 6.860000, 1.132789e-02, 6.870000, 2.174869e-03
6.880000, -1.171492e-02, 6.890000, -7.559836e-03, 6.900000, -4.538411e-03, 6.910000, -9.126285e-03
6.920000, -2.506380e-02, 6.930000, -2.983106e-02, 6.940000, -1.246746e-02, 6.950000, -1.424472e-02
6.960000, -1.071632e-02, 6.970000, -1.469616e-03, 6.980000, -1.221785e-03, 6.990000, -1.844974e-03
7.000000, -2.441829e-03, 7.010000, 1.386048e-02, 7.020000, 2.969418e-02, 7.030000, 2.857862e-02
7.040000, 3.315900e-02, 7.050000, 3.006312e-02, 7.060000, 2.239535e-02, 7.070000, 1.485164e-02
7.080000, 1.303065e-02, 7.090000, 1.560431e-02, 7.100000, 2.161453e-03, 7.110000, -7.421721e-03
7.120000, -4.506404e-04, 7.130000, 5.054800e-03, 7.140000, 6.551478e-03, 7.150000, 8.266455e-03
7.160000, 7.148346e-03, 7.170000, 6.009287e-03, 7.180000, 1.119817e-03, 7.190000, 3.632906e-03
7.200000, 1.142285e-02, 7.210000, 2.131922e-02, 7.220000, 1.139463e-02, 7.230000, 1.348941e-02
7.240000, 1.725582e-02, 7.250000, 1.026511e-02, 7.260000, 7.099580e-03, 7.270000, -2.617666e-03
7.280000, -1.437227e-03, 7.290000, 7.399065e-03, 7.300000, 5.236692e-03, 7.310000, -6.179357e-03
7.320000, -9.781090e-03, 7.330000, -1.232030e-02, 7.340000, -5.568464e-03, 7.350000, -1.013080e-02
7.360000, -2.820790e-02, 7.370000, -2.526499e-02, 7.380000, -2.470971e-02, 7.390000, -2.726587e-02
7.400000, -3.012507e-02, 7.410000, -1.316895e-02, 7.420000, 1.923320e-02, 7.430000, 3.321408e-02
7.440000, 3.889493e-02, 7.450000, 4.286685e-02, 7.460000, 5.111499e-02, 7.470000, 4.871610e-02
7.480000, 5.212910e-02, 7.490000, 5.017680e-02, 7.500000, 3.781694e-02, 7.510000, 2.256997e-02
7.520000, 1.799740e-02, 7.530000, 1.783560e-02, 7.540000, 1.757297e-02, 7.550000, 1.963362e-02
7.560000, 3.120227e-03, 7.570000, 3.933942e-04, 7.580000, 7.198332e-03, 7.590000, 1.508916e-02
7.600000, 2.522980e-02, 7.610000, 2.033928e-02, 7.620000, 6.385073e-03, 7.630000, 3.704800e-03
7.640000, -1.401881e-02, 7.650000, -3.470379e-02, 7.660000, -4.370371e-02, 7.670000, -4.663627e-02
7.680000, -5.045172e-02, 7.690000, -5.480955e-02, 7.700000, -4.407893e-02, 7.710000, -3.369619e-02
7.720000, -3.413995e-02, 7.730000, -3.317635e-02, 7.740000, -1.013271e-02, 7.750000, 1.149757e-02
7.760000, -1.698514e-03, 7.770000, 8.488577e-03, 7.780000, 2.691497e-02, 7.790000, 1.972370e-02
7.800000, 1.995711e-03, 7.810000, 2.211205e-03, 7.820000, 1.143851e-02, 7.830000, 2.304470e-03
7.840000, -1.406766e-02, 7.850000, -2.795319e-02, 7.860000, -9.409097e-03, 7.870000, -8.688577e-03
7.880000, -1.733937e-02, 7.890000, -7.881597e-03, 7.900000, 7.456124e-03, 7.910000, 1.975480e-02
7.920000, 2.028549e-02, 7.930000, 2.348250e-02, 7.940000, 2.269173e-02, 7.950000, 9.395746e-03
7.960000, -4.268465e-03, 7.970000, 5.697655e-04, 7.980000, -6.376873e-04, 7.990000, -6.815743e-04
8.000000, -8.852050e-03, 8.010000, -8.410662e-03, 8.020000, -1.069254e-03, 8.030000, -7.698018e-03
8.040000, 7.853306e-04, 8.050000, 9.082508e-03, 8.060000, 6.448901e-03, 8.070000, 1.711742e-02
8.080000, 1.429481e-02, 8.090000, 2.250763e-02, 8.100000, 8.608219e-03, 8.110000, -1.383332e-02
8.120000, -6.356543e-03, 8.130000, -2.810774e-03, 8.140000, 1.360986e-02, 8.150000, 1.714165e-02
8.160000, 4.609858e-03, 8.170000, 6.764852e-03, 8.180000, 1.899982e-02, 8.190000, 1.660216e-02
8.200000, 1.359973e-02, 8.210000, -4.363281e-03, 8.220000, -8.730142e-03, 8.230000, 1.491104e-02
8.240000, 1.941505e-02, 8.250000, 8.224687e-03, 8.260000, 2.263781e-02, 8.270000, 3.265413e-02
8.280000, 1.527602e-02, 8.290000, -4.259382e-03, 8.300000, -2.131553e-02, 8.310000, -1.397674e-02
8.320000, -6.339013e-03, 8.330000, -1.097095e-02, 8.340000, 4.904630e-03, 8.350000, 2.040138e-02
8.360000, -3.298261e-03, 8.370000, -1.322814e-02, 8.380000, 1.411639e-02, 8.390000, 1.615557e-02
8.400000, -5.370869e-03, 8.410000, -1.919666e-02, 8.420000, -1.038776e-02, 8.430000, 1.463750e-02
8.440000, 8.510048e-03, 8.450000, -2.654198e-03, 8.460000, 1.662638e-03, 8.470000, 2.060373e-03
8.480000, -1.374919e-02, 8.490000, -1.012256e-02, 8.500000, 1.119258e-02, 8.510000, 1.223208e-02
8.520000, 1.424602e-02, 8.530000, 1.195224e-02, 8.540000, 1.478322e-02, 8.550000, 2.460910e-02
8.560000, 3.111398e-02, 8.570000, 1.721412e-02, 8.580000, 6.581647e-03, 8.590000, -1.173624e-02
8.600000, -5.949163e-03, 8.610000, -1.465749e-02, 8.620000, -2.138855e-02, 8.630000, -5.562634e-03
8.640000, 1.660211e-02, 8.650000, 4.823758e-02, 8.660000, 3.818867e-02, 8.670000, 3.966001e-02
8.680000, 4.063984e-02, 8.690000, 3.021773e-02, 8.700000, 2.831593e-02, 8.710000, 2.551765e-02
8.720000, 2.855622e-02, 8.730000, 4.107405e-02, 8.740000, 4.787370e-02, 8.750000, 3.199160e-02
8.760000, 2.438067e-02, 8.770000, 2.896567e-02, 8.780000, 3.386402e-02, 8.790000, 4.012072e-02
8.800000, 1.942383e-02, 8.810000, 1.894208e-02, 8.820000, 5.139359e-02, 8.830000, 4.855070e-02
8.840000, 2.802068e-02, 8.850000, 2.533302e-02, 8.860000, 3.112082e-02, 8.870000, 3.172468e-02
8.880000, 1.741501e-02, 8.890000, -5.200625e-03, 8.900000, 2.059629e-02, 8.910000, 4.762744e-02
8.920000, 1.462822e-02, 8.930000, -2.250339e-03, 8.940000, -4.285053e-03, 8.950000, -1.267366e-02
8.960000, -1.706487e-02, 8.970000, -3.298838e-02, 8.980000, -3.076298e-02, 8.990000, -9.456816e-03
9.000000, 6.039542e-03, 9.010000, 1.531075e-02, 9.020000, 1.580612e-02, 9.030000, 2.259600e-02
9.040000, 1.685206e-02, 9.050000, 5.543926e-03, 9.060000, -8.858915e-04, 9.070000, -1.595980e-02
9.080000, -4.511129e-02, 9.090000, -9.289313e-02, 9.100000, -8.145216e-02, 9.110000, -6.985874e-02
9.120000, -6.348140e-02, 9.130000, -5.094471e-02, 9.140000, -6.064308e-02, 9.150000, -5.628726e-02
9.160000, -6.272813e-02, 9.170000, -7.307978e-02, 9.180000, -4.599306e-02, 9.190000, -2.449823e-02
9.200000, -1.716860e-02, 9.210000, -1.827713e-02, 9.220000, -5.960586e-03, 9.230000, 7.395442e-03
9.240000, 1.457085e-02, 9.250000, 1.142911e-03, 9.260000, -2.309670e-02, 9.270000, -2.751330e-02
9.280000, -1.018498e-02, 9.290000, -3.104556e-03, 9.300000, -3.010347e-02, 9.310000, -2.634402e-02
9.320000, -5.880048e-04, 9.330000, -1.578451e-03, 9.340000, -2.202377e-02, 9.350000, -5.642203e-02
9.360000, -6.124137e-02, 9.370000, -3.833621e-02, 9.380000, -4.591000e-02, 9.390000, -5.887695e-02
9.400000, -7.260192e-02, 9.410000, -6.769656e-02, 9.420000, -4.070717e-02, 9.430000, -6.598806e-02
9.440000, -9.667758e-02, 9.450000, -7.316772e-02, 9.460000, -7.009031e-02, 9.470000, -7.792345e-02
9.480000, -8.324964e-02, 9.490000, -1.020311e-01, 9.500000, -1.170058e-01, 9.510000, -1.004141e-01
9.520000, -1.094756e-01, 9.530000, -1.319364e-01, 9.540000, -1.020272e-01, 9.550000, -5.967925e-02
9.560000, -5.060000e-02, 9.570000, -4.808526e-02, 9.580000, -5.434594e-02, 9.590000, -4.415618e-02
9.600000, -4.639301e-02, 9.610000, -6.543450e-02, 9.620000, -8.064566e-02, 9.630000, -7.878297e-02
9.640000, -6.394170e-02, 9.650000, -6.063243e-02, 9.660000, -5.956638e-02, 9.670000, -1.791315e-02
9.680000, 2.531834e-02, 9.690000, 3.916166e-02, 9.700000, 5.597919e-02, 9.710000, 6.407757e-02
9.720000, 7.620006e-02, 9.730000, 1.035644e-01, 9.740000, 1.235732e-01, 9.750000, 1.472692e-01
9.760000, 1.764607e-01, 9.770000, 1.740188e-01, 9.780000, 1.521963e-01, 9.790000, 1.517826e-01
9.800000, 1.603194e-01, 9.810000, 1.557953e-01, 9.820000, 1.657253e-01, 9.830000, 1.454974e-01
9.840000, 1.134585e-01, 9.850000, 9.121282e-02, 9.860000, 7.636909e-02, 9.870000, 6.828959e-02
9.880000, 7.310534e-02, 9.890000, 5.658086e-02, 9.900000, 6.312411e-02, 9.910000, 7.487012e-02
9.920000, 5.815304e-02, 9.930000, 7.563815e-02, 9.940000, 8.823111e-02, 9.950000, 1.010291e-01
9.960000, 1.141290e-01, 9.970000, 1.054506e-01, 9.980000, 8.988341e-02, 9.990000, 9.341433e-02
10.000000, 1.085575e-01, 10.010000, 1.014699e-01, 10.020000, 8.718311e-02, 10.030000, 8.277719e-02
10.040000, 8.348497e-02, 10.050000, 8.117170e-02, 10.060000, 8.468610e-02, 10.070000, 9.156973e-02
10.080000, 1.064010e-01, 10.090000, 9.043146e-02, 10.100000, 6.359078e-02, 10.110000, -8.823455e-03
10.120000, -8.735046e-02, 10.130000, -1.314021e-01, 10.140000, -1.383878e-01, 10.150000, -1.465844e-01
10.160000, -1.415392e-01, 10.170000, -1.578599e-01, 10.180000, -1.824462e-01, 10.190000, -1.991437e-01
10.200000, -2.119069e-01, 10.210000, -2.235147e-01, 10.220000, -2.162304e-01, 10.230000, -1.857261e-01
10.240000, -1.627422e-01, 10.250000, -1.546074e-01, 10.260000, -1.515437e-01, 10.270000, -1.426808e-01
10.280000, -1.151923e-01, 10.290000, -6.249959e-02, 10.300000, -2.412524e-02, 10.310000, -2.711203e-02
10.320000, -2.987484e-02, 10.330000, -4.401139e-03, 10.340000, 1.734281e-02, 10.350000, 1.666546e-02
10.360000, -1.613216e-03, 10.370000, -1.422320e-02, 10.380000, -2.297844e-02, 10.390000, -5.552063e-02
10.400000, -9.325092e-02, 10.410000, -1.183170e-01, 10.420000, -1.228590e-01, 10.430000, -1.284719e-01
10.440000, -1.663080e-01, 10.450000, -1.928039e-01, 10.460000, -2.166970e-01, 10.470000, -2.461780e-01
10.480000, -2.510001e-01, 10.490000, -2.602361e-01, 10.500000, -2.965026e-01, 10.510000, -3.054090e-01
10.520000, -3.085840e-01, 10.530000, -3.242877e-01, 10.540000, -3.332113e-01, 10.550000, -3.291186e-01
10.560000, -3.237030e-01, 10.570000, -3.150902e-01, 10.580000, -3.009674e-01, 10.590000, -2.774790e-01
10.600000, -2.430687e-01, 10.610000, -2.144375e-01, 10.620000, -1.896295e-01, 10.630000, -1.510892e-01
10.640000, -8.421250e-02, 10.650000, 2.790805e-02, 10.660000, 1.266723e-01, 10.670000, 1.464520e-01
10.680000, 1.424424e-01, 10.690000, 1.436318e-01, 10.700000, 1.370543e-01, 10.710000, 1.936276e-01
10.720000, 2.498649e-01, 10.730000, 2.286423e-01, 10.740000, 2.774024e-01, 10.750000, 3.854126e-01
10.760000, 4.906570e-01, 10.770000, 5.831996e-01, 10.780000, 6.721972e-01, 10.790000, 7.487562e-01
10.800000, 8.224288e-01, 10.810000, 8.131354e-01, 10.820000, 7.483229e-01, 10.830000, 6.923374e-01
10.840000, 5.234910e-01, 10.850000, 2.997995e-01, 10.860000, 1.316960e-01, 10.870000, 1.457843e-01
10.880000, 2.730711e-01, 10.890000, 3.211691e-01, 10.900000, 2.804140e-01, 10.910000, 1.986760e-01
10.920000, 1.649900e-01, 10.930000, 1.631518e-01, 10.940000, 1.999307e-01, 10.950000, 2.712961e-01
10.960000, 2.509671e-01, 10.970000, 1.976956e-01, 10.980000, 1.769252e-01, 10.990000, 1.881747e-01
11.000000, 2.264784e-01, 11.010000, 2.376117e-01, 11.020000, 2.304618e-01, 11.030000, 1.808446e-01
11.040000, 1.461354e-01, 11.050000, 1.238865e-01, 11.060000, 5.616745e-02, 11.070000, 6.060929e-03
11.080000, -9.144439e-04, 11.090000, 7.425876e-03, 11.100000, -2.368766e-02, 11.110000, -7.745861e-02
11.120000, -1.058543e-01, 11.130000, -1.187684e-01, 11.140000, -1.407239e-01, 11.150000, -1.701624e-01
11.160000, -2.183340e-01, 11.170000, -2.788327e-01, 11.180000, -3.310686e-01, 11.190000, -3.640047e-01
11.200000, -3.870808e-01, 11.210000, -4.363293e-01, 11.220000, -4.965388e-01, 11.230000, -5.102162e-01
11.240000, -4.798924e-01, 11.250000, -4.619192e-01, 11.260000, -4.716715e-01, 11.270000, -4.953653e-01
11.280000, -4.726237e-01, 11.290000, -4.384634e-01, 11.300000, -3.687222e-01, 11.310000, -3.348204e-01
11.320000, -3.199913e-01, 11.330000, -2.873914e-01, 11.340000, -2.400596e-01, 11.350000, -1.795091e-01
11.360000, -1.074465e-01, 11.370000, -4.408994e-02, 11.380000, 2.038986e-02, 11.390000, 1.019044e-01
11.400000, 1.407247e-01, 11.410000, 1.303976e-01, 11.420000, 1.159218e-01, 11.430000, 9.806189e-02
11.440000, 8.842928e-02, 11.450000, 8.919259e-02, 11.460000, 1.067706e-01, 11.470000, 1.188584e-01
11.480000, 1.000951e-01, 11.490000, 7.468802e-02, 11.500000, 5.453856e-02, 11.510000, 3.483333e-02
11.520000, 7.636286e-02, 11.530000, 1.341592e-01, 11.540000, 1.505765e-01, 11.550000, 1.510840e-01
11.560000, 1.412154e-01, 11.570000, 1.002565e-01, 11.580000, 5.021637e-02, 11.590000, -9.757940e-03
11.600000, -4.538936e-02, 11.610000, -1.060466e-01, 11.620000, -1.251404e-01, 11.630000, -1.224559e-01
11.640000, -1.424881e-01, 11.650000, -1.727284e-01, 11.660000, -1.952942e-01, 11.670000, -2.180486e-01
11.680000, -2.319433e-01, 11.690000, -2.314804e-01, 11.700000, -2.167164e-01, 11.710000, -1.919316e-01
11.720000, -1.758501e-01, 11.730000, -1.724026e-01, 11.740000, -1.533026e-01, 11.750000, -1.097503e-01
11.760000, -6.864928e-02, 11.770000, -4.028286e-02, 11.780000, -1.160157e-02, 11.790000, 1.781786e-02
11.800000, 3.303036e-02, 11.810000, 4.006433e-02, 11.820000, 5.491092e-02, 11.830000, 5.727850e-02
11.840000, 3.126134e-02, 11.850000, 1.352087e-02, 11.860000, 5.115033e-02, 11.870000, 8.619938e-02
11.880000, 7.722170e-02, 11.890000, 4.296817e-02, 11.900000, 2.493758e-02, 11.910000, 1.604971e-02
11.920000, 3.232758e-02, 11.930000, 2.410087e-02, 11.940000, -1.307940e-02, 11.950000, -2.683276e-02
11.960000, -2.036161e-03, 11.970000, 2.458460e-02, 11.980000, 1.896340e-02, 11.990000, -8.060942e-03
12.000000, -2.985574e-02, 12.010000, -1.502137e-02, 12.020000, -1.173726e-03, 12.030000, -1.516529e-02
12.040000, -2.010117e-02, 12.050000, -1.594597e-02, 12.060000, -2.708625e-03, 12.070000, 1.082675e-02
12.080000, 9.258723e-03, 12.090000, 1.027988e-02, 12.100000, 8.994609e-03, 12.110000, 5.257010e-03
12.120000, 9.931077e-03, 12.130000, 4.387990e-02, 12.140000, 6.125917e-02, 12.150000, 5.417898e-02
12.160000, 5.853942e-02, 12.170000, 9.363987e-02, 12.180000, 1.232699e-01, 12.190000, 1.261415e-01
12.200000, 1.220414e-01, 12.210000, 1.262086e-01, 12.220000, 1.263033e-01, 12.230000, 1.223544e-01
12.240000, 1.203612e-01, 12.250000, 9.715258e-02, 12.260000, 8.654526e-02, 12.270000, 8.772383e-02
12.280000, 8.884302e-02, 12.290000, 8.299688e-02, 12.300000, 7.365685e-02, 12.310000, 7.340644e-02
12.320000, 7.906004e-02, 12.330000, 8.581925e-02, 12.340000, 9.641352e-02, 12.350000, 1.051498e-01
12.360000, 1.044604e-01, 12.370000, 1.077574e-01, 12.380000, 8.399347e-02, 12.390000, 5.471575e-02
12.400000, 4.520049e-02, 12.410000, 5.463272e-02, 12.420000, 4.748820e-02, 12.430000, 2.827539e-02
12.440000, 1.029294e-02, 12.450000, 1.695571e-03, 12.460000, 8.663578e-03, 12.470000, 2.503015e-03
12.480000, -2.209414e-02, 12.490000, -2.211248e-02, 12.500000, -1.240895e-02, 12.510000, -2.863752e-02
12.520000, -3.927040e-02, 12.530000, -4.926168e-02, 12.540000, -3.905230e-02, 12.550000, -3.826582e-02
12.560000, -4.762608e-02, 12.570000, -7.119794e-02, 12.580000, -9.143956e-02, 12.590000, -8.196193e-02
12.600000, -8.498721e-02, 12.610000, -1.080912e-01, 12.620000, -1.144664e-01, 12.630000, -1.116462e-01
12.640000, -1.082604e-01, 12.650000, -1.073335e-01, 12.660000, -1.107443e-01, 12.670000, -1.176663e-01
12.680000, -1.268530e-01, 12.690000, -1.262735e-01, 12.700000, -1.203727e-01, 12.710000, -1.117885e-01
12.720000, -1.036145e-01, 12.730000, -9.277157e-02, 12.740000, -7.619604e-02, 12.750000, -6.514961e-02
12.760000, -5.717650e-02, 12.770000, -4.394043e-02, 12.780000, -2.964688e-02, 12.790000, -9.595654e-03
12.800000, 5.618283e-03, 12.810000, 3.690577e-03, 12.820000, 1.673605e-03, 12.830000, 1.753343e-02
12.840000, 4.856031e-02, 12.850000, 6.678207e-02, 12.860000, 7.269925e-02, 12.870000, 8.609278e-02
12.880000, 9.507079e-02, 12.890000, 1.095405e-01, 12.900000, 1.226628e-01, 12.910000, 1.268380e-01
12.920000, 1.408369e-01, 12.930000, 1.629168e-01, 12.940000, 1.745207e-01, 12.950000, 1.715886e-01
12.960000, 1.657018e-01, 12.970000, 1.753921e-01, 12.980000, 1.899019e-01, 12.990000, 1.878969e-01
13.000000, 1.761758e-01, 13.010000, 1.726053e-01, 13.020000, 1.724560e-01, 13.030000, 1.680676e-01
13.040000, 1.662817e-01, 13.050000, 1.780020e-01, 13.060000, 1.919364e-01, 13.070000, 1.763740e-01
13.080000, 1.310292e-01, 13.090000, 9.847694e-02, 13.100000, 8.687598e-02, 13.110000, 6.076479e-02
13.120000, 2.071081e-02, 13.130000, 7.319320e-03, 13.140000, -1.377795e-03, 13.150000, 4.007066e-03
13.160000, 1.560291e-02, 13.170000, 1.850577e-02, 13.180000, -2.170925e-03, 13.190000, -2.366401e-02
13.200000, -5.089522e-02, 13.210000, -6.024334e-02, 13.220000, -3.019318e-02, 13.230000, -1.916224e-02
13.240000, -2.380358e-02, 13.250000, -3.041419e-02, 13.260000, -1.932207e-02, 13.270000, 2.222179e-03
13.280000, 1.308564e-02, 13.290000, 9.575702e-04, 13.300000, -1.238760e-02, 13.310000, -2.287601e-03
13.320000, -7.736530e-03, 13.330000, -2.564336e-02, 13.340000, -4.862331e-02, 13.350000, -6.853469e-02
13.360000, -7.490691e-02, 13.370000, -7.923843e-02, 13.380000, -9.694962e-02, 13.390000, -1.203266e-01
13.400000, -1.343048e-01, 13.410000, -1.287415e-01, 13.420000, -1.313357e-01, 13.430000, -1.420103e-01
13.440000, -1.590767e-01, 13.450000, -1.602165e-01, 13.460000, -1.500641e-01, 13.470000, -1.276020e-01
13.480000, -1.141298e-01, 13.490000, -1.156560e-01, 13.500000, -1.074962e-01, 13.510000, -8.809940e-02
13.520000, -8.045137e-02, 13.530000, -9.187042e-02, 13.540000, -6.549179e-02, 13.550000, -7.256933e-02
13.560000, -1.052880e-01, 13.570000, -8.152334e-02, 13.580000, -9.720430e-02, 13.590000, -6.940068e-02
13.600000, -7.963922e-02, 13.610000, -7.655218e-02, 13.620000, -6.518791e-02, 13.630000, -6.259646e-02
13.640000, -6.614409e-02, 13.650000, -6.506690e-02, 13.660000, -4.620353e-02, 13.670000, -1.725409e-02
13.680000, -2.124575e-03, 13.690000, 1.068048e-02, 13.700000, 2.121913e-02, 13.710000, 3.360396e-02
13.720000, 4.533222e-02, 13.730000, 4.709172e-02, 13.740000, 4.610130e-02, 13.750000, 5.046017e-02
13.760000, 4.943412e-02, 13.770000, 3.031602e-02, 13.780000, 2.695035e-02, 13.790000, 3.872931e-02
13.800000, 4.271089e-02, 13.810000, 5.395909e-02, 13.820000, 5.738848e-02, 13.830000, 4.686456e-02
13.840000, 1.265299e-02, 13.850000, -9.845891e-03, 13.860000, -1.328019e-02, 13.870000, -7.340186e-03
13.880000, -8.430848e-03, 13.890000, -4.017799e-02, 13.900000, -5.175680e-02, 13.910000, -2.818884e-02
13.920000, -3.046870e-02, 13.930000, -3.633814e-02, 13.940000, -2.619935e-02, 13.950000, -2.479815e-02
13.960000, -4.116440e-03, 13.970000, 1.426644e-02, 13.980000, 1.607012e-02, 13.990000, 2.292963e-02
14.000000, 1.178748e-02, 14.010000, 9.851880e-03, 14.020000, 4.563038e-02, 14.030000, 2.439016e-02
14.040000, 4.419552e-03, 14.050000, -3.832514e-03, 14.060000, -3.657255e-02, 14.070000, -6.086521e-02
14.080000, -5.763306e-02, 14.090000, -5.321919e-02, 14.100000, -5.029364e-02, 14.110000, -5.769237e-02
14.120000, -7.868034e-02, 14.130000, -4.773352e-02, 14.140000, -3.743268e-02, 14.150000, -2.732317e-02
14.160000, -1.548979e-02, 14.170000, -2.050204e-02, 14.180000, -1.450381e-02, 14.190000, 1.187587e-02
14.200000, 2.281359e-02, 14.210000, 1.432667e-02, 14.220000, 2.085510e-02, 14.230000, 4.772945e-02
14.240000, 5.547200e-02, 14.250000, 5.545371e-02, 14.260000, 5.379092e-02, 14.270000, 5.069026e-02
14.280000, 5.782826e-02, 14.290000, 6.417760e-02, 14.300000, 6.154216e-02, 14.310000, 5.050630e-02
14.320000, 3.834899e-02, 14.330000, 4.267444e-02, 14.340000, 4.274244e-02, 14.350000, 3.455901e-02
14.360000, 3.304323e-02, 14.370000, 3.253884e-02, 14.380000, 3.037769e-02, 14.390000, 2.357429e-02
14.400000, 9.984687e-03, 14.410000, 7.246145e-03, 14.420000, 2.279483e-02, 14.430000, 2.480439e-02
14.440000, 1.182103e-02, 14.450000, 9.442763e-03, 14.460000, 1.198975e-02, 14.470000, 1.384833e-02
14.480000, 1.695841e-02, 14.490000, 2.511255e-02, 14.500000, 3.564445e-02, 14.510000, 2.451914e-02
14.520000, 5.586943e-02, 14.530000, 7.623962e-02, 14.540000, 6.645982e-02, 14.550000, 9.064318e-02
14.560000, 7.568268e-02, 14.570000, 7.272021e-02, 14.580000, 9.927979e-02, 14.590000, 9.129722e-02
14.600000, 9.568117e-02, 14.610000, 1.015936e-01, 14.620000, 9.150682e-02, 14.630000, 1.019855e-01
14.640000, 8.992394e-02, 14.650000, 6.794756e-02, 14.660000, 3.439541e-02, 14.670000, 2.155584e-02
14.680000, 1.987361e-02, 14.690000, 3.924951e-02, 14.700000, 4.348152e-02, 14.710000, 3.101380e-02
14.720000, 1.711490e-02, 14.730000, 2.322877e-02, 14.740000, 3.622203e-02, 14.750000, 4.360021e-02
14.760000, 4.446629e-02, 14.770000, 5.287833e-02, 14.780000, 6.444645e-02, 14.790000, 6.346284e-02
14.800000, 5.024747e-02, 14.810000, 5.389575e-02, 14.820000, 5.880485e-02, 14.830000, 4.218153e-02
14.840000, 3.579076e-02, 14.850000, 3.717306e-02, 14.860000, 2.582206e-02, 14.870000, 7.664723e-03
14.880000, -2.029926e-03, 14.890000, 3.171752e-03, 14.900000, 8.865262e-03, 14.910000, 2.257923e-04
14.920000, -9.469077e-03, 14.930000, -1.140605e-02, 14.940000, -8.967151e-03, 14.950000, -4.944013e-03
14.960000, -3.722974e-03, 14.970000, -4.926069e-03, 14.980000, -5.473925e-03, 14.990000, -5.266890e-03
15.000000, -8.906862e-03, 15.010000, -1.102962e-02, 15.020000, -1.749105e-02, 15.030000, -2.796460e-02
15.040000, -3.640571e-02, 15.050000, -3.554178e-02, 15.060000, -3.449304e-02, 15.070000, -3.961253e-02
15.080000, -4.618098e-02, 15.090000, -4.866088e-02, 15.100000, -5.564423e-02, 15.110000, -6.521416e-02
15.120000, -6.118498e-02, 15.130000, -5.747715e-02, 15.140000, -6.190788e-02, 15.150000, -6.238148e-02
15.160000, -6.459461e-02, 15.170000, -7.009738e-02, 15.180000, -6.998369e-02, 15.190000, -6.799828e-02
15.200000, -5.927464e-02, 15.210000, -5.272421e-02, 15.220000, -5.242969e-02, 15.230000, -5.029537e-02
15.240000, -4.274137e-02, 15.250000, -3.256282e-02, 15.260000, -1.778549e-02, 15.270000, -1.316925e-03
15.280000, 4.607847e-03, 15.290000, 1.171181e-02, 15.300000, 1.684843e-02, 15.310000, 1.988609e-02
15.320000, 1.865408e-02, 15.330000, 1.773689e-02, 15.340000, 1.410269e-02, 15.350000, 7.072642e-03
15.360000, -4.843119e-05, 15.370000, -6.913885e-03, 15.380000, -9.163394e-03, 15.390000, -9.612615e-03
15.400000, -1.263647e-02, 15.410000, -1.681585e-02, 15.420000, -1.397658e-02, 15.430000, -2.221882e-03
15.440000, 6.471708e-03, 15.450000, 1.064528e-02, 15.460000, 1.520024e-02, 15.470000, 2.174670e-02
15.480000, 2.006799e-02, 15.490000, 1.113631e-02, 15.500000, 2.231202e-03, 15.510000, -6.728982e-03
15.520000, -2.087629e-02, 15.530000, -3.803935e-02, 15.540000, -4.845161e-02, 15.550000, -4.352545e-02
15.560000, -3.586177e-02, 15.570000, -3.841067e-02, 15.580000, -4.294148e-02, 15.590000, -4.729995e-02
15.600000, -3.885415e-02, 15.610000, -3.632245e-02, 15.620000, -5.192245e-02, 15.630000, -5.875934e-02
15.640000, -5.825612e-02, 15.650000, -6.210167e-02, 15.660000, -6.594518e-02, 15.670000, -7.053559e-02
15.680000, -7.263710e-02, 15.690000, -6.698901e-02, 15.700000, -6.991071e-02, 15.710000, -7.620137e-02
15.720000, -6.947031e-02, 15.730000, -6.223146e-02, 15.740000, -5.711408e-02, 15.750000, -5.484861e-02
15.760000, -5.115005e-02, 15.770000, -5.198252e-02, 15.780000, -5.622583e-02, 15.790000, -5.645736e-02
15.800000, -5.497469e-02, 15.810000, -5.433192e-02, 15.820000, -5.894137e-02, 15.830000, -5.993717e-02
15.840000, -5.221265e-02, 15.850000, -5.087196e-02, 15.860000, -4.793278e-02, 15.870000, -4.420267e-02
15.880000, -4.135871e-02, 15.890000, -2.798853e-02, 15.900000, -2.132982e-02, 15.910000, -2.285505e-02
15.920000, -1.593577e-02, 15.930000, -8.451475e-03, 15.940000, -5.391217e-03, 15.950000, -1.464782e-03
15.960000, 2.147686e-03, 15.970000, 2.777563e-04, 15.980000, -9.523965e-03, 15.990000, -1.361043e-02
16.000000, -6.882050e-03, 16.010000, -1.229802e-03, 16.020000, -2.325477e-03, 16.030000, -9.782090e-03
16.040000, -1.291870e-02, 16.050000, -6.776691e-03, 16.060000, -3.467923e-03, 16.070000, -1.009573e-02
16.080000, -1.734936e-02, 16.090000, -1.526096e-02, 16.100000, -1.193438e-02, 16.110000, -1.205257e-02
16.120000, -1.336977e-02, 16.130000, -1.632889e-02, 16.140000, -8.649134e-03, 16.150000, 8.976286e-03
16.160000, 1.658005e-02, 16.170000, 1.424509e-02, 16.180000, 1.541144e-02, 16.190000, 2.239624e-02
16.200000, 2.972946e-02, 16.210000, 3.619576e-02, 16.220000, 3.388648e-02, 16.230000, 3.114700e-02
16.240000, 3.672067e-02, 16.250000, 3.466223e-02, 16.260000, 2.708015e-02, 16.270000, 2.517720e-02
16.280000, 2.495366e-02, 16.290000, 2.299759e-02, 16.300000, 1.625164e-02, 16.310000, 9.589045e-03
16.320000, 1.547392e-02, 16.330000, 2.786514e-02, 16.340000, 3.038334e-02, 16.350000, 3.252159e-02
16.360000, 4.574518e-02, 16.370000, 5.721490e-02, 16.380000, 6.022551e-02, 16.390000, 6.462809e-02
16.400000, 7.157429e-02, 16.410000, 7.556733e-02, 16.420000, 8.193023e-02, 16.430000, 8.561306e-02
16.440000, 8.120351e-02, 16.450000, 7.674166e-02, 16.460000, 8.354843e-02, 16.470000, 9.063313e-02
16.480000, 8.730942e-02, 16.490000, 8.063269e-02, 16.500000, 7.717283e-02, 16.510000, 7.378174e-02
16.520000, 7.425403e-02, 16.530000, 6.985197e-02, 16.540000, 6.051947e-02, 16.550000, 5.513944e-02
16.560000, 5.148455e-02, 16.570000, 4.990480e-02, 16.580000, 4.493594e-02, 16.590000, 4.046061e-02
16.600000, 4.051262e-02, 16.610000, 3.540712e-02, 16.620000, 2.901569e-02, 16.630000, 2.729828e-02
16.640000, 2.088230e-02, 16.650000, 9.753027e-03, 16.660000, -2.964510e-04, 16.670000, -8.142925e-03
16.680000, -8.330717e-03, 16.690000, -3.511219e-03, 16.700000, -9.421177e-03, 16.710000, -1.169454e-02
16.720000, -1.155853e-03, 16.730000, 5.248941e-03, 16.740000, 5.273920e-03, 16.750000, 7.375572e-03
16.760000, 1.862798e-02, 16.770000, 3.431994e-02, 16.780000, 3.778676e-02, 16.790000, 3.406170e-02
16.800000, 3.443484e-02, 16.810000, 4.309193e-02, 16.820000, 5.684180e-02, 16.830000, 6.704706e-02
16.840000, 7.031284e-02, 16.850000, 7.044385e-02, 16.860000, 6.905886e-02, 16.870000, 6.249677e-02
16.880000, 4.909495e-02, 16.890000, 4.026996e-02, 16.900000, 3.893728e-02, 16.910000, 3.001947e-02
16.920000, 1.748676e-02, 16.930000, 7.997312e-03, 16.940000, 1.829559e-03, 16.950000, -6.239828e-04
16.960000, -4.996570e-03, 16.970000, -7.888945e-03, 16.980000, -9.573124e-03, 16.990000, -1.449564e-02
17.000000, -1.819305e-02, 17.010000, -1.534358e-02, 17.020000, -1.220082e-02, 17.030000, -1.340368e-02
17.040000, -1.516700e-02, 17.050000, -1.597768e-02, 17.060000, -1.398743e-02, 17.070000, -1.234713e-02
17.080000, -1.915849e-02, 17.090000, -1.875581e-02, 17.100000, -1.405740e-02, 17.110000, -3.336994e-03
17.120000, 1.336654e-03, 17.130000, 2.866446e-03, 17.140000, 8.964761e-03, 17.150000, 1.649173e-02
17.160000, 2.223210e-02, 17.170000, 2.463027e-02, 17.180000, 1.896731e-02, 17.190000, 1.405915e-02
17.200000, 1.226617e-02, 17.210000, 4.576289e-03, 17.220000, -6.672687e-03, 17.230000, -1.772072e-02
17.240000, -2.988208e-02, 17.250000, -3.849795e-02, 17.260000, -3.868851e-02, 17.270000, -4.198621e-02
17.280000, -4.858289e-02, 17.290000, -5.160371e-02, 17.300000, -4.964225e-02, 17.310000, -4.531218e-02
17.320000, -4.643108e-02, 17.330000, -5.170547e-02, 17.340000, -5.480285e-02, 17.350000, -5.844922e-02
17.360000, -5.922129e-02, 17.370000, -5.960717e-02, 17.380000, -6.623868e-02, 17.390000, -7.251207e-02
17.400000, -7.439103e-02, 17.410000, -7.356139e-02, 17.420000, -6.994458e-02, 17.430000, -6.593703e-02
17.440000, -5.786006e-02, 17.450000, -4.301187e-02, 17.460000, -2.209027e-02, 17.470000, -3.197469e-03
17.480000, 7.582457e-03, 17.490000, 1.784282e-02, 17.500000, 3.191744e-02, 17.510000, 4.769229e-02
17.520000, 5.906709e-02, 17.530000, 6.191485e-02, 17.540000, 5.687069e-02, 17.550000, 5.367837e-02
17.560000, 5.639863e-02, 17.570000, 5.740308e-02, 17.580000, 4.923369e-02, 17.590000, 3.151849e-02
17.600000, 1.532167e-02, 17.610000, 2.469845e-03, 17.620000, -1.197924e-02, 17.630000, -2.161110e-02
17.640000, -2.761734e-02, 17.650000, -3.054991e-02, 17.660000, -3.466336e-02, 17.670000, -4.388792e-02
17.680000, -4.735500e-02, 17.690000, -4.580928e-02, 17.700000, -4.294942e-02, 17.710000, -4.423241e-02
17.720000, -4.481362e-02, 17.730000, -3.890457e-02, 17.740000, -2.494109e-02, 17.750000, -1.516838e-02
17.760000, -3.913811e-03, 17.770000, 1.081566e-02, 17.780000, 2.928027e-02, 17.790000, 4.823073e-02
17.800000, 6.175453e-02, 17.810000, 6.901601e-02, 17.820000, 7.050967e-02, 17.830000, 7.580522e-02
17.840000, 8.318546e-02, 17.850000, 7.717982e-02, 17.860000, 7.101611e-02, 17.870000, 7.080631e-02
17.880000, 6.697698e-02, 17.890000, 5.561073e-02, 17.900000, 3.904510e-02, 17.910000, 2.077230e-02
17.920000, 6.470147e-03, 17.930000, -3.445140e-03, 17.940000, -1.521787e-02, 17.950000, -2.585305e-02
17.960000, -3.197997e-02, 17.970000, -3.522879e-02, 17.980000, -3.500670e-02, 17.990000, -3.286581e-02
18.000000, -3.015152e-02, 18.010000, -2.789228e-02, 18.020000, -2.510236e-02, 18.030000, -1.684447e-02
18.040000, -8.043324e-03, 18.050000, 2.082931e-03, 18.060000, 1.571609e-02, 18.070000, 2.620952e-02
18.080000, 3.433532e-02, 18.090000, 4.585994e-02, 18.100000, 5.526552e-02, 18.110000, 6.173961e-02
18.120000, 6.470390e-02, 18.130000, 6.463044e-02, 18.140000, 6.350803e-02, 18.150000, 5.844364e-02
18.160000, 5.127653e-02, 18.170000, 3.933853e-02, 18.180000, 1.889884e-02, 18.190000, 3.138859e-03
18.200000, -4.868492e-03, 18.210000, -1.010598e-02, 18.220000, -1.300633e-02, 18.230000, -1.782524e-02
18.240000, -2.218840e-02, 18.250000, -2.119598e-02, 18.260000, -1.729025e-02, 18.270000, -1.365979e-02
18.280000, -9.707834e-03, 18.290000, -1.106066e-02, 18.300000, -1.825100e-02, 18.310000, -2.326932e-02
18.320000, -2.414998e-02, 18.330000, -2.556434e-02, 18.340000, -3.276654e-02, 18.350000, -3.968457e-02
18.360000, -4.451575e-02, 18.370000, -5.129981e-02, 18.380000, -5.745720e-02, 18.390000, -5.979723e-02
18.400000, -6.166779e-02, 18.410000, -6.412822e-02, 18.420000, -6.940939e-02, 18.430000, -7.326987e-02
18.440000, -6.959596e-02, 18.450000, -6.532182e-02, 18.460000, -6.743116e-02, 18.470000, -7.225054e-02
18.480000, -7.240272e-02, 18.490000, -7.061324e-02, 18.500000, -6.735723e-02, 18.510000, -6.350451e-02
18.520000, -5.814375e-02, 18.530000, -4.742278e-02, 18.540000, -3.460791e-02, 18.550000, -2.326109e-02
18.560000, -1.378975e-02, 18.570000, -3.034719e-03, 18.580000, 5.916526e-03, 18.590000, 6.983487e-03
18.600000, 4.352615e-03, 18.610000, 4.242525e-03, 18.620000, 6.276762e-03, 18.630000, 6.363484e-03
18.640000, 3.476582e-03, 18.650000, -7.282155e-03, 18.660000, -1.803504e-02, 18.670000, -2.064671e-02
18.680000, -2.539838e-02, 18.690000, -3.553659e-02, 18.700000, -4.141714e-02, 18.710000, -4.739705e-02
18.720000, -5.397398e-02, 18.730000, -5.717033e-02, 18.740000, -6.041193e-02, 18.750000, -6.089085e-02
18.760000, -5.918384e-02, 18.770000, -6.011516e-02, 18.780000, -5.779811e-02, 18.790000, -5.555953e-02
18.800000, -5.915076e-02, 18.810000, -6.200598e-02, 18.820000, -6.136317e-02, 18.830000, -6.074484e-02
18.840000, -6.415891e-02, 18.850000, -7.357563e-02, 18.860000, -7.783021e-02, 18.870000, -7.501953e-02
18.880000, -7.263332e-02, 18.890000, -7.384616e-02, 18.900000, -7.988297e-02, 18.910000, -8.759385e-02
18.920000, -8.765961e-02, 18.930000, -8.251237e-02, 18.940000, -8.109311e-02, 18.950000, -8.104677e-02
18.960000, -7.712488e-02, 18.970000, -6.777633e-02, 18.980000, -5.482201e-02, 18.990000, -4.129513e-02
19.000000, -2.707664e-02, 19.010000, -1.250782e-02, 19.020000, -1.633050e-03, 19.030000, 1.255232e-02
19.040000, 2.596852e-02, 19.050000, 3.439550e-02, 19.060000, 4.172021e-02, 19.070000, 4.801696e-02
19.080000, 5.645686e-02, 19.090000, 6.439321e-02, 19.100000, 6.712832e-02, 19.110000, 6.567529e-02
19.120000, 6.474780e-02, 19.130000, 6.422669e-02, 19.140000, 5.644140e-02, 19.150000, 4.444697e-02
19.160000, 3.463873e-02, 19.170000, 2.648278e-02, 19.180000, 1.683878e-02, 19.190000, 5.112963e-03
19.200000, -3.612262e-03, 19.210000, -7.231961e-03, 19.220000, -7.424574e-03, 19.230000, -6.577682e-03
19.240000, -6.200295e-03, 19.250000, -5.902378e-03, 19.260000, -1.699140e-03, 19.270000, 5.467843e-03
19.280000, 1.024178e-02, 19.290000, 1.187936e-02, 19.300000, 1.753153e-02, 19.310000, 2.487822e-02
19.320000, 3.081455e-02, 19.330000, 3.863017e-02, 19.340000, 4.927767e-02, 19.350000, 5.553116e-02
19.360000, 5.994623e-02, 19.370000, 6.772018e-02, 19.380000, 7.530196e-02, 19.390000, 7.827038e-02
19.400000, 8.178240e-02, 19.410000, 8.418376e-02, 19.420000, 8.330474e-02, 19.430000, 7.898628e-02
19.440000, 6.504763e-02, 19.450000, 4.711673e-02, 19.460000, 3.673614e-02, 19.470000, 3.179700e-02
19.480000, 2.312946e-02, 19.490000, 1.344611e-02, 19.500000, 2.515367e-03, 19.510000, -6.836810e-03
19.520000, -6.694511e-03, 19.530000, -9.572826e-04, 19.540000, -1.638586e-03, 19.550000, -4.900193e-03
19.560000, -4.423742e-03, 19.570000, -7.613942e-04, 19.580000, 1.087654e-03, 19.590000, 9.917126e-04
19.600000, 1.105203e-03, 19.610000, 3.320739e-04, 19.620000, 3.307220e-03, 19.630000, 8.991842e-03
19.640000, 1.364346e-02, 19.650000, 2.069694e-02, 19.660000, 2.865912e-02, 19.670000, 2.990434e-02
19.680000, 3.059730e-02, 19.690000, 3.352283e-02, 19.700000, 3.196168e-02, 19.710000, 2.683909e-02
19.720000, 1.883484e-02, 19.730000, 1.140437e-02, 19.740000, 1.758828e-03, 19.750000, -9.552085e-03
19.760000, -1.984363e-02, 19.770000, -2.468743e-02, 19.780000, -2.740938e-02, 19.790000, -3.532314e-02
19.800000, -4.193000e-02, 19.810000, -4.017386e-02, 19.820000, -3.577631e-02, 19.830000, -2.632825e-02
19.840000, -1.207674e-02, 19.850000, 3.489163e-03, 19.860000, 1.871373e-02, 19.870000, 2.608062e-02
19.880000, 3.947975e-02, 19.890000, 5.183920e-02, 19.900000, 6.114910e-02, 19.910000, 7.218776e-02
19.920000, 8.172650e-02, 19.930000, 8.505943e-02, 19.940000, 8.375496e-02, 19.950000, 8.079787e-02
19.960000, 7.560569e-02, 19.970000, 7.018544e-02, 19.980000, 6.272571e-02, 19.990000, 5.374505e-02
20.000000, 4.493236e-02, 20.010000, 4.068313e-02, 20.020000, 4.174698e-02, 20.030000, 3.492993e-02
20.040000, 2.463004e-02, 20.050000, 2.190528e-02, 20.060000, 2.333656e-02, 20.070000, 2.364020e-02
20.080000, 1.998803e-02, 20.090000, 1.429375e-02, 20.100000, 1.264309e-02, 20.110000, 1.711607e-02
20.120000, 1.917704e-02, 20.130000, 1.555760e-02, 20.140000, 9.724512e-03, 20.150000, 6.199905e-03
20.160000, 3.439948e-03, 20.170000, 1.297152e-03, 20.180000, -2.699155e-03, 20.190000, -4.264791e-03
20.200000, -4.995368e-03, 20.210000, -5.562336e-03, 20.220000, -5.422675e-03, 20.230000, -5.228928e-03
20.240000, -3.053259e-03, 20.250000, 5.268603e-03, 20.260000, 1.280317e-02, 20.270000, 1.819487e-02
20.280000, 1.814541e-02, 20.290000, 1.859434e-02, 20.300000, 1.950824e-02, 20.310000, 2.323547e-02
20.320000, 2.551414e-02, 20.330000, 2.473756e-02, 20.340000, 2.523944e-02, 20.350000, 2.684659e-02
20.360000, 2.257298e-02, 20.370000, 1.610941e-02, 20.380000, 1.557809e-02, 20.390000, 1.853493e-02
20.400000, 1.823180e-02, 20.410000, 1.448733e-02, 20.420000, 1.238985e-02, 20.430000, 1.135841e-02
20.440000, 1.250026e-02, 20.450000, 1.391405e-02, 20.460000, 1.210543e-02, 20.470000, 9.002608e-03
20.480000, 8.133433e-03, 20.490000, 9.344439e-03, 20.500000, 1.108679e-02, 20.510000, 6.725869e-03
20.520000, 1.942893e-03, 20.530000, -1.545043e-04, 20.540000, -1.036794e-03, 20.550000, -1.760713e-03
20.560000, -2.576050e-03, 20.570000, -5.251112e-03, 20.580000, -9.425028e-03, 20.590000, -9.326246e-03
20.600000, -8.247605e-03, 20.610000, -1.049063e-02, 20.620000, -1.415606e-02, 20.630000, -1.667055e-02
20.640000, -1.751936e-02, 20.650000, -1.812785e-02, 20.660000, -1.927681e-02, 20.670000, -1.971504e-02
20.680000, -1.926294e-02, 20.690000, -1.865669e-02, 20.700000, -1.799746e-02, 20.710000, -1.852585e-02
20.720000, -1.911890e-02, 20.730000, -1.975314e-02, 20.740000, -1.967272e-02, 20.750000, -1.675365e-02
20.760000, -1.516007e-02, 20.770000, -1.589613e-02, 20.780000, -1.502463e-02, 20.790000, -1.441324e-02
20.800000, -1.521559e-02, 20.810000, -1.377253e-02, 20.820000, -8.867929e-03, 20.830000, -9.097898e-03
20.840000, -1.391223e-02, 20.850000, -1.483237e-02, 20.860000, -1.127355e-02, 20.870000, -9.766828e-03
20.880000, -1.179886e-02, 20.890000, -1.492028e-02, 20.900000, -1.763223e-02, 20.910000, -1.626152e-02
20.920000, -1.754878e-02, 20.930000, -2.283626e-02, 20.940000, -2.477598e-02, 20.950000, -2.361731e-02
20.960000, -2.107656e-02, 20.970000, -1.935802e-02, 20.980000, -2.168775e-02, 20.990000, -2.434961e-02
21.000000, -2.340846e-02, 21.010000, -2.184475e-02, 21.020000, -2.314980e-02, 21.030000, -2.685326e-02
21.040000, -3.099552e-02, 21.050000, -3.307479e-02, 21.060000, -3.151957e-02, 21.070000, -3.008944e-02
21.080000, -2.698353e-02, 21.090000, -2.538780e-02, 21.100000, -2.379971e-02, 21.110000, -2.196500e-02
21.120000, -2.119640e-02, 21.130000, -1.971060e-02, 21.140000, -1.137870e-02, 21.150000, -2.614878e-03
21.160000, 2.308677e-03, 21.170000, 7.848510e-03, 21.180000, 1.482601e-02, 21.190000, 2.015406e-02
21.200000, 2.489224e-02, 21.210000, 2.759242e-02, 21.220000, 2.797623e-02, 21.230000, 2.817633e-02
21.240000, 2.656672e-02, 21.250000, 2.192778e-02, 21.260000, 1.642623e-02, 21.270000, 1.482125e-02
21.280000, 1.261402e-02, 21.290000, 1.091584e-02, 21.300000, 1.286593e-02, 21.310000, 1.174876e-02
21.320000, 7.058447e-03, 21.330000, 3.382526e-03, 21.340000, 8.407210e-04, 21.350000, -1.325988e-03
21.360000, -2.533163e-03, 21.370000, -2.666278e-03, 21.380000, -9.734931e-04, 21.390000, 1.325210e-03
21.400000, 2.410479e-03, 21.410000, 3.538807e-03, 21.420000, 3.411593e-03, 21.430000, 5.633808e-03
21.440000, 6.918505e-03, 21.450000, 7.206512e-03, 21.460000, 8.065786e-03, 21.470000, 6.114545e-03
21.480000, 4.869067e-03, 21.490000, 7.517303e-03, 21.500000, 1.177909e-02, 21.510000, 1.281054e-02
21.520000, 1.145067e-02, 21.530000, 1.199886e-02, 21.540000, 1.523987e-02, 21.550000, 1.895897e-02
21.560000, 2.147682e-02, 21.570000, 2.249768e-02, 21.580000, 2.611630e-02, 21.590000, 3.050928e-02
21.600000, 3.158832e-02, 21.610000, 3.107775e-02, 21.620000, 3.160755e-02, 21.630000, 2.790553e-02
21.640000, 2.193896e-02, 21.650000, 1.397808e-02, 21.660000, 5.810193e-03, 21.670000, -2.176713e-03
21.680000, -1.023865e-02, 21.690000, -1.712938e-02, 21.700000, -2.045683e-02, 21.710000, -2.189695e-02
21.720000, -2.692790e-02, 21.730000, -3.191862e-02, 21.740000, -3.286736e-02, 21.750000, -3.281364e-02
21.760000, -3.800483e-02, 21.770000, -4.312468e-02, 21.780000, -4.482345e-02, 21.790000, -4.297242e-02
21.800000, -4.127927e-02, 21.810000, -4.211266e-02, 21.820000, -3.961915e-02, 21.830000, -3.510595e-02
21.840000, -3.380677e-02, 21.850000, -3.331982e-02, 21.860000, -3.118692e-02, 21.870000, -2.802319e-02
21.880000, -2.515021e-02, 21.890000, -2.658705e-02, 21.900000, -2.929734e-02, 21.910000, -2.995619e-02
21.920000, -2.844961e-02, 21.930000, -2.898646e-02, 21.940000, -2.763724e-02, 21.950000, -2.405581e-02
21.960000, -2.012819e-02, 21.970000, -1.678386e-02, 21.980000, -1.227155e-02, 21.990000, -1.282477e-03
22.000000, 8.322087e-03, 22.010000, 1.148205e-02, 22.020000, 1.745109e-02, 22.030000, 2.106830e-02
22.040000, 2.533504e-02, 22.050000, 2.749757e-02, 22.060000, 2.821252e-02, 22.070000, 3.035627e-02
22.080000, 3.268770e-02, 22.090000, 3.442088e-02, 22.100000, 3.490866e-02, 22.110000, 3.681538e-02
22.120000, 4.023836e-02, 22.130000, 4.314941e-02, 22.140000, 4.617055e-02, 22.150000, 4.787961e-02
22.160000, 4.894327e-02, 22.170000, 4.965408e-02, 22.180000, 4.809178e-02, 22.190000, 4.551227e-02
22.200000, 4.249250e-02, 22.210000, 3.862860e-02, 22.220000, 3.454099e-02, 22.230000, 2.811687e-02
22.240000, 2.180309e-02, 22.250000, 2.086403e-02, 22.260000, 2.077557e-02, 22.270000, 1.881184e-02
22.280000, 1.822341e-02, 22.290000, 1.906378e-02, 22.300000, 1.943109e-02, 22.310000, 1.933972e-02
22.320000, 1.927839e-02, 22.330000, 1.833130e-02, 22.340000, 1.853850e-02, 22.350000, 1.799781e-02
22.360000, 1.622557e-02, 22.370000, 1.452618e-02, 22.380000, 1.013186e-02, 22.390000, 4.872460e-03
22.400000, 1.438424e-03, 22.410000, -4.559152e-03, 22.420000, -1.388238e-02, 22.430000, -2.198105e-02
22.440000, -2.856251e-02, 22.450000, -3.186606e-02, 22.460000, -3.363878e-02, 22.470000, -3.886792e-02
22.480000, -4.379457e-02, 22.490000, -4.600486e-02, 22.500000, -4.791206e-02, 22.510000, -5.153119e-02
22.520000, -5.578477e-02, 22.530000, -5.579878e-02, 22.540000, -5.291329e-02, 22.550000, -4.899492e-02
22.560000, -4.572223e-02, 22.570000, -4.145162e-02, 22.580000, -3.425438e-02, 22.590000, -2.793378e-02
22.600000, -2.823279e-02, 22.610000, -2.845733e-02, 22.620000, -2.802262e-02, 22.630000, -2.687824e-02
22.640000, -2.562944e-02, 22.650000, -2.525231e-02, 22.660000, -2.488714e-02, 22.670000, -2.224305e-02
22.680000, -1.912370e-02, 22.690000, -1.563087e-02, 22.700000, -1.108563e-02, 22.710000, -7.832801e-03
22.720000, -4.759444e-03, 22.730000, 8.866468e-04, 22.740000, 6.512419e-03, 22.750000, 1.283760e-02
22.760000, 1.777392e-02, 22.770000, 1.999204e-02, 22.780000, 2.155438e-02, 22.790000, 2.236464e-02
22.800000, 2.298820e-02, 22.810000, 2.334510e-02, 22.820000, 2.160568e-02, 22.830000, 1.971834e-02
22.840000, 1.631396e-02, 22.850000, 1.079993e-02, 22.860000, 5.783358e-03, 22.870000, 4.623675e-03
22.880000, 4.038185e-03, 22.890000, 2.551104e-04, 22.900000, -3.322981e-03, 22.910000, -4.762611e-03
22.920000, -5.347556e-03, 22.930000, -6.712464e-03, 22.940000, -7.877311e-03, 22.950000, -8.216187e-03
22.960000, -6.665295e-03, 22.970000, -5.858208e-03, 22.980000, -5.312927e-03, 22.990000, -4.727676e-03
23.000000, -3.183704e-03, 23.010000, -1.456133e-03, 23.020000, -2.400521e-04, 23.030000, 1.817072e-04
23.040000, 2.300380e-03, 23.050000, 4.441135e-03, 23.060000, 4.042749e-03, 23.070000, 3.648038e-03
23.080000, 4.073323e-03, 23.090000, 5.630488e-03, 23.100000, 4.930310e-03, 23.110000, 1.013516e-03
23.120000, -3.954671e-03, 23.130000, -9.874867e-03, 23.140000, -1.641885e-02, 23.150000, -2.460698e-02
23.160000, -3.128595e-02, 23.170000, -3.374529e-02, 23.180000, -3.392234e-02, 23.190000, -3.367893e-02
23.200000, -3.495543e-02, 23.210000, -3.424182e-02, 23.220000, -3.170772e-02, 23.230000, -3.003275e-02
23.240000, -2.453408e-02, 23.250000, -1.971110e-02, 23.260000, -1.745901e-02, 23.270000, -1.319129e-02
23.280000, -1.015487e-02, 23.290000, -9.449394e-03, 23.300000, -1.045816e-02, 23.310000, -1.162951e-02
23.320000, -1.264106e-02, 23.330000, -1.612134e-02, 23.340000, -1.805919e-02, 23.350000, -1.725430e-02
23.360000, -1.697254e-02, 23.370000, -1.834218e-02, 23.380000, -1.869928e-02, 23.390000, -1.662829e-02
23.400000, -1.551147e-02, 23.410000, -1.521819e-02, 23.420000, -1.331147e-02, 23.430000, -1.044833e-02
23.440000, -9.976406e-03, 23.450000, -9.580712e-03, 23.460000, -7.610190e-03, 23.470000, -4.146139e-03
23.480000, -1.020135e-03, 23.490000, 1.124598e-03, 23.500000, 5.866521e-03, 23.510000, 8.565625e-03
23.520000, 1.109651e-02, 23.530000, 1.370325e-02, 23.540000, 1.933119e-02, 23.550000, 2.224719e-02
23.560000, 2.559076e-02, 23.570000, 2.945035e-02, 23.580000, 3.232032e-02, 23.590000, 3.540461e-02
23.600000, 3.711162e-02, 23.610000, 3.708195e-02, 23.620000, 3.694051e-02, 23.630000, 3.696696e-02
23.640000, 3.786872e-02, 23.650000, 3.720866e-02, 23.660000, 3.499660e-02, 23.670000, 3.281447e-02
23.680000, 3.173649e-02, 23.690000, 3.134386e-02, 23.700000, 2.941228e-02, 23.710000, 2.781015e-02
23.720000, 2.850611e-02, 23.730000, 2.702818e-02, 23.740000, 2.323547e-02, 23.750000, 2.052054e-02
23.760000, 1.897680e-02, 23.770000, 1.721522e-02, 23.780000, 1.603885e-02, 23.790000, 1.727474e-02
23.800000, 1.756900e-02, 23.810000, 1.888157e-02, 23.820000, 2.383458e-02, 23.830000, 2.662558e-02
23.840000, 2.793391e-02, 23.850000, 3.408553e-02, 23.860000, 4.045493e-02, 23.870000, 4.370144e-02
23.880000, 4.415187e-02, 23.890000, 4.346856e-02, 23.900000, 4.589585e-02, 23.910000, 4.831648e-02
23.920000, 4.815659e-02, 23.930000, 5.006563e-02, 23.940000, 5.235367e-02, 23.950000, 5.217040e-02
23.960000, 5.133323e-02, 23.970000, 5.019538e-02, 23.980000, 4.802857e-02, 23.990000, 4.462119e-02
24.000000, 3.933779e-02, 24.010000, 3.210533e-02, 24.020000, 2.478087e-02, 24.030000, 1.697819e-02
24.040000, 9.514403e-03, 24.050000, 5.409938e-03, 24.060000, 1.916831e-03, 24.070000, -3.134788e-03
24.080000, -5.754361e-03, 24.090000, -7.155195e-03, 24.100000, -7.865078e-03, 24.110000, -7.847575e-03
24.120000, -1.032534e-02, 24.130000, -1.013702e-02, 24.140000, -8.587448e-03, 24.150000, -7.689834e-03
24.160000, -9.200891e-03, 24.170000, -9.717330e-03, 24.180000, -7.005917e-03, 24.190000, -8.435956e-03
24.200000, -1.187536e-02, 24.210000, -1.392861e-02, 24.220000, -1.530154e-02, 24.230000, -1.828471e-02
24.240000, -2.403197e-02, 24.250000, -2.962342e-02, 24.260000, -3.423028e-02, 24.270000, -3.862471e-02
24.280000, -4.176059e-02, 24.290000, -4.538190e-02, 24.300000, -4.741305e-02, 24.310000, -4.673781e-02
24.320000, -4.476224e-02, 24.330000, -4.139358e-02, 24.340000, -3.850151e-02, 24.350000, -3.454035e-02
24.360000, -2.927515e-02, 24.370000, -2.656206e-02, 24.380000, -2.658331e-02, 24.390000, -2.324591e-02
24.400000, -2.149824e-02, 24.410000, -2.324157e-02, 24.420000, -2.677017e-02, 24.430000, -3.100136e-02
24.440000, -3.458381e-02, 24.450000, -3.609804e-02, 24.460000, -4.039465e-02, 24.470000, -4.325393e-02
24.480000, -4.498284e-02, 24.490000, -4.488590e-02, 24.500000, -4.383150e-02, 24.510000, -4.230401e-02
24.520000, -3.962002e-02, 24.530000, -3.682773e-02, 24.540000, -3.424178e-02, 24.550000, -3.254988e-02
24.560000, -3.128229e-02, 24.570000, -2.895950e-02, 24.580000, -2.676919e-02, 24.590000, -2.503813e-02
24.600000, -2.340656e-02, 24.610000, -2.074648e-02, 24.620000, -1.546074e-02, 24.630000, -1.206845e-02
24.640000, -9.903427e-03, 24.650000, -6.973025e-03, 24.660000, -3.986580e-03, 24.670000, -1.359296e-03
24.680000, -4.394467e-05, 24.690000, 1.237955e-03, 24.700000, 2.962912e-03, 24.710000, 7.711193e-04
24.720000, -3.324828e-03, 24.730000, -2.079455e-03, 24.740000, -5.895290e-04, 24.750000, -1.445382e-03
24.760000, -4.202856e-03, 24.770000, -6.636719e-03, 24.780000, -8.033949e-03, 24.790000, -8.944303e-03
24.800000, -1.127805e-02, 24.810000, -1.241703e-02, 24.820000, -1.155190e-02, 24.830000, -1.047342e-02
24.840000, -9.193274e-03, 24.850000, -7.905924e-03, 24.860000, -6.134269e-03, 24.870000, -3.481662e-03
24.880000, -2.818096e-03, 24.890000, -7.894095e-04, 24.900000, 1.473286e-03, 24.910000, 2.688055e-03
24.920000, 5.503448e-03, 24.930000, 8.623165e-03, 24.940000, 1.151932e-02, 24.950000, 1.451857e-02
24.960000, 1.631325e-02, 24.970000, 1.919452e-02, 24.980000, 2.382858e-02, 24.990000, 2.786321e-02
25.000000, 3.009787e-02, 25.010000, 3.152172e-02, 25.020000, 3.398747e-02, 25.030000, 3.640599e-02
25.040000, 3.703564e-02, 25.050000, 3.639367e-02, 25.060000, 3.325115e-02, 25.070000, 3.015110e-02
25.080000, 2.838317e-02, 25.090000, 2.458053e-02, 25.100000, 2.042492e-02, 25.110000, 1.642140e-02
25.120000, 1.323597e-02, 25.130000, 1.140790e-02, 25.140000, 8.053669e-03, 25.150000, 4.345200e-03
25.160000, 2.165440e-03, 25.170000, -9.724236e-04, 25.180000, -5.025419e-03, 25.190000, -6.631536e-03
25.200000, -7.407886e-03, 25.210000, -8.938442e-03, 25.220000, -9.653541e-03, 25.230000, -1.028470e-02
25.240000, -9.571843e-03, 25.250000, -9.629669e-03, 25.260000, -9.590321e-03, 25.270000, -8.595347e-03
25.280000, -8.270605e-03, 25.290000, -7.471161e-03, 25.300000, -6.422727e-03, 25.310000, -6.346690e-03
25.320000, -7.201614e-03, 25.330000, -6.187504e-03, 25.340000, -4.460252e-03, 25.350000, -2.893201e-03
25.360000, -2.233175e-03, 25.370000, -2.712394e-04, 25.380000, 4.204837e-03, 25.390000, 7.142596e-03
25.400000, 9.515665e-03, 25.410000, 1.171327e-02, 25.420000, 1.310811e-02, 25.430000, 1.454077e-02
25.440000, 1.542035e-02, 25.450000, 1.555652e-02, 25.460000, 1.617357e-02, 25.470000, 1.602208e-02
25.480000, 1.599754e-02, 25.490000, 1.578856e-02, 25.500000, 1.592959e-02, 25.510000, 1.688713e-02
25.520000, 1.755467e-02, 25.530000, 1.875280e-02, 25.540000, 1.864344e-02, 25.550000, 1.726939e-02
25.560000, 1.528540e-02, 25.570000, 1.197044e-02, 25.580000, 9.566565e-03, 25.590000, 7.473761e-03
25.600000, 4.527424e-03, 25.610000, 3.249245e-03, 25.620000, 1.404500e-03, 25.630000, -1.177892e-03
25.640000, -2.705443e-03, 25.650000, -4.544447e-03, 25.660000, -5.532765e-03, 25.670000, -7.181866e-03
25.680000, -9.429783e-03, 25.690000, -1.152990e-02, 25.700000, -1.374830e-02, 25.710000, -1.664352e-02
25.720000, -1.869868e-02, 25.730000, -2.047579e-02, 25.740000, -2.237950e-02, 25.750000, -2.402822e-02
25.760000, -2.491755e-02, 25.770000, -2.432870e-02, 25.780000, -2.425070e-02, 25.790000, -2.434853e-02
25.800000, -2.379228e-02, 25.810000, -2.306928e-02, 25.820000, -2.027302e-02, 25.830000, -1.657210e-02
25.840000, -1.379738e-02, 25.850000, -1.029827e-02, 25.860000, -4.895183e-03, 25.870000, -2.148527e-04
25.880000, 3.848440e-03, 25.890000, 8.161966e-03, 25.900000, 1.244809e-02, 25.910000, 1.645943e-02
25.920000, 2.000703e-02, 25.930000, 2.259133e-02, 25.940000, 2.457842e-02, 25.950000, 2.511252e-02
25.960000, 2.472614e-02, 25.970000, 2.414679e-02, 25.980000, 2.290260e-02, 25.990000, 2.081967e-02
26.000000, 1.840602e-02, 26.010000, 1.655632e-02, 26.020000, 1.422091e-02, 26.030000, 1.182210e-02
26.040000, 9.769937e-03, 26.050000, 7.693438e-03, 26.060000, 4.454854e-03, 26.070000, 2.839960e-03
26.080000, 9.856860e-04, 26.090000, -1.625423e-03, 26.100000, -4.261281e-03, 26.110000, -6.667126e-03
26.120000, -7.897250e-03, 26.130000, -8.252951e-03, 26.140000, -8.256627e-03, 26.150000, -8.847437e-03
26.160000, -8.199467e-03, 26.170000, -6.357089e-03, 26.180000, -3.873674e-03, 26.190000, -1.928650e-04
26.200000, 3.179643e-03, 26.210000, 5.479326e-03, 26.220000, 7.295406e-03, 26.230000, 8.745031e-03
26.240000, 8.550160e-03, 26.250000, 4.905701e-03, 26.260000, 8.932116e-04, 26.270000, -8.097610e-04
26.280000, -4.683494e-03, 26.290000, -9.110908e-03, 26.300000, -1.344570e-02, 26.310000, -1.819380e-02
26.320000, -2.178223e-02, 26.330000, -2.399947e-02, 26.340000, -2.734959e-02, 26.350000, -2.999617e-02
26.360000, -2.990522e-02, 26.370000, -2.902264e-02, 26.380000, -2.713201e-02, 26.390000, -2.426678e-02
26.400000, -2.066081e-02, 26.410000, -1.623879e-02, 26.420000, -1.116401e-02, 26.430000, -5.962595e-03
26.440000, -2.788936e-03, 26.450000, 3.026702e-04, 26.460000, 4.085147e-03, 26.470000, 7.080007e-03
26.480000, 8.213057e-03, 26.490000, 8.271119e-03, 26.500000, 7.987508e-03, 26.510000, 6.583555e-03
26.520000, 3.809665e-03, 26.530000, 1.737640e-04, 26.540000, -3.396469e-03, 26.550000, -6.037820e-03
26.560000, -7.707653e-03, 26.570000, -8.392703e-03, 26.580000, -8.290082e-03, 26.590000, -5.351013e-03
26.600000, -1.604766e-03, 26.610000, 3.237402e-03, 26.620000, 8.062525e-03, 26.630000, 1.182677e-02
26.640000, 1.523481e-02, 26.650000, 1.907348e-02, 26.660000, 2.254660e-02, 26.670000, 2.506426e-02
26.680000, 2.824693e-02, 26.690000, 3.012607e-02, 26.700000, 2.999544e-02, 26.710000, 2.803310e-02
26.720000, 2.624387e-02, 26.730000, 2.556695e-02, 26.740000, 2.616714e-02, 26.750000, 2.720232e-02
26.760000, 2.773234e-02, 26.770000, 2.862012e-02, 26.780000, 2.909930e-02, 26.790000, 2.849856e-02
26.800000, 2.738529e-02, 26.810000, 2.731762e-02, 26.820000, 2.640378e-02, 26.830000, 2.569829e-02
26.840000, 2.504269e-02, 26.850000, 2.360236e-02, 26.860000, 2.291696e-02, 26.870000, 2.197479e-02
26.880000, 2.093452e-02, 26.890000, 1.851523e-02, 26.900000, 1.587919e-02, 26.910000, 1.341649e-02
26.920000, 9.958082e-03, 26.930000, 5.562371e-03, 26.940000, 1.918812e-03, 26.950000, -1.085299e-03
26.960000, -3.428642e-03, 26.970000, -6.289468e-03, 26.980000, -9.688450e-03, 26.990000, -1.282732e-02
27.000000, -1.554112e-02, 27.010000, -1.794790e-02, 27.020000, -2.002360e-02, 27.030000, -2.189432e-02
27.040000, -2.229153e-02, 27.050000, -2.321879e-02, 27.060000, -2.459286e-02, 27.070000, -2.583583e-02
27.080000, -2.664199e-02, 27.090000, -2.587922e-02, 27.100000, -2.439248e-02, 27.110000, -2.425045e-02
27.120000, -2.356036e-02, 27.130000, -2.057022e-02, 27.140000, -1.690588e-02, 27.150000, -1.508536e-02
27.160000, -1.458619e-02, 27.170000, -1.328364e-02, 27.180000, -1.253173e-02, 27.190000, -1.219849e-02
27.200000, -1.266909e-02, 27.210000, -1.286023e-02, 27.220000, -1.312351e-02, 27.230000, -1.508657e-02
27.240000, -1.675023e-02, 27.250000, -1.753495e-02, 27.260000, -1.922389e-02, 27.270000, -2.077865e-02
27.280000, -2.156814e-02, 27.290000, -2.221004e-02, 27.300000, -2.257611e-02, 27.310000, -2.335851e-02
27.320000, -2.446189e-02, 27.330000, -2.552626e-02, 27.340000, -2.565198e-02, 27.350000, -2.547462e-02
27.360000, -2.542082e-02, 27.370000, -2.496047e-02, 27.380000, -2.342603e-02, 27.390000, -2.131419e-02
27.400000, -1.824703e-02, 27.410000, -1.438140e-02, 27.420000, -8.940125e-03, 27.430000, -2.568875e-03
27.440000, 1.957999e-03, 27.450000, 4.448539e-03, 27.460000, 5.863416e-03, 27.470000, 6.803158e-03
27.480000, 6.220103e-03, 27.490000, 5.627733e-03, 27.500000, 4.220691e-03, 27.510000, 1.285933e-03
27.520000, -2.277763e-03, 27.530000, -5.801568e-03, 27.540000, -9.754618e-03, 27.550000, -1.221282e-02
27.560000, -1.370638e-02, 27.570000, -1.517510e-02, 27.580000, -1.530349e-02, 27.590000, -1.478223e-02
27.600000, -1.462780e-02, 27.610000, -1.426030e-02, 27.620000, -1.354412e-02, 27.630000, -1.248444e-02
27.640000, -1.068418e-02, 27.650000, -9.219338e-03, 27.660000, -7.447352e-03, 27.670000, -5.087601e-03
27.680000, -3.239632e-03, 27.690000, -1.862984e-03, 27.700000, -2.105737e-04, 27.710000, 8.900660e-04
27.720000, 1.720148e-03, 27.730000, 2.800696e-03, 27.740000, 3.186879e-03, 27.750000, 4.253815e-03
27.760000, 5.501029e-03, 27.770000, 5.534701e-03, 27.780000, 6.195772e-03, 27.790000, 7.631829e-03
27.800000, 8.005742e-03, 27.810000, 9.408910e-03, 27.820000, 1.149942e-02, 27.830000, 1.365447e-02
27.840000, 1.702168e-02, 27.850000, 2.067755e-02, 27.860000, 2.203908e-02, 27.870000, 2.354007e-02
27.880000, 2.501958e-02, 27.890000, 2.695976e-02, 27.900000, 2.906058e-02, 27.910000, 3.053499e-02
27.920000, 3.135112e-02, 27.930000, 3.206931e-02, 27.940000, 3.214320e-02, 27.950000, 3.240724e-02
27.960000, 3.267436e-02, 27.970000, 3.258903e-02, 27.980000, 3.293551e-02, 27.990000, 3.370709e-02
28.000000, 3.419161e-02, 28.010000, 3.323433e-02, 28.020000, 3.261102e-02, 28.030000, 3.319122e-02
28.040000, 3.398095e-02, 28.050000, 3.281466e-02, 28.060000, 3.055636e-02, 28.070000, 2.909466e-02
28.080000, 2.796324e-02, 28.090000, 2.734213e-02, 28.100000, 2.626732e-02, 28.110000, 2.492635e-02
28.120000, 2.393488e-02, 28.130000, 2.308408e-02, 28.140000, 2.190036e-02, 28.150000, 2.092295e-02
28.160000, 1.983540e-02, 28.170000, 1.917888e-02, 28.180000, 1.798143e-02, 28.190000, 1.611968e-02
28.200000, 1.457459e-02, 28.210000, 1.349695e-02, 28.220000, 1.233434e-02, 28.230000, 1.143233e-02
28.240000, 1.030143e-02, 28.250000, 8.739193e-03, 28.260000, 8.389264e-03, 28.270000, 7.879518e-03
28.280000, 6.429690e-03, 28.290000, 4.948787e-03, 28.300000, 3.028207e-03, 28.310000, 1.212582e-03
28.320000, -5.395339e-04, 28.330000, -3.406226e-03, 28.340000, -6.772560e-03, 28.350000, -9.791318e-03
28.360000, -1.225658e-02, 28.370000, -1.483637e-02, 28.380000, -1.655202e-02, 28.390000, -1.772018e-02
28.400000, -1.911471e-02, 28.410000, -2.042197e-02, 28.420000, -2.119461e-02, 28.430000, -2.124400e-02
28.440000, -2.153625e-02, 28.450000, -2.281655e-02, 28.460000, -2.369032e-02, 28.470000, -2.480784e-02
28.480000, -2.640283e-02, 28.490000, -2.800289e-02, 28.500000, -2.912626e-02, 28.510000, -2.910735e-02
28.520000, -2.902827e-02, 28.530000, -2.943065e-02, 28.540000, -2.814594e-02, 28.550000, -2.566448e-02
28.560000, -2.330366e-02, 28.570000, -2.039526e-02, 28.580000, -1.648414e-02, 28.590000, -1.242920e-02
28.600000, -8.823066e-03, 28.610000, -5.536726e-03, 28.620000, -2.210406e-03, 28.630000, -4.274103e-04
28.640000, -8.646311e-04, 28.650000, -1.575953e-03, 28.660000, -2.160164e-03, 28.670000, -4.119488e-03
28.680000, -6.845394e-03, 28.690000, -1.041703e-02, 28.700000, -1.422961e-02, 28.710000, -1.706119e-02
28.720000, -2.030642e-02, 28.730000, -2.400516e-02, 28.740000, -2.520514e-02, 28.750000, -2.654766e-02
28.760000, -2.720117e-02, 28.770000, -2.803963e-02, 28.780000, -2.902861e-02, 28.790000, -2.917374e-02
28.800000, -2.850641e-02, 28.810000, -2.744848e-02, 28.820000, -2.722411e-02, 28.830000, -2.705694e-02
28.840000, -2.610839e-02, 28.850000, -2.572930e-02, 28.860000, -2.612731e-02, 28.870000, -2.681286e-02
28.880000, -2.644120e-02, 28.890000, -2.561011e-02, 28.900000, -2.562344e-02, 28.910000, -2.507904e-02
28.920000, -2.438401e-02, 28.930000, -2.430773e-02, 28.940000, -2.289919e-02, 28.950000, -2.007691e-02
28.960000, -1.663575e-02, 28.970000, -1.370893e-02, 28.980000, -1.081040e-02, 28.990000, -7.450244e-03
29.000000, -4.990451e-03, 29.010000, -3.258584e-03, 29.020000, -2.053591e-03, 29.030000, -6.021347e-04
29.040000, -6.754211e-05, 29.050000, -3.334037e-04, 29.060000, -5.072428e-04, 29.070000, -3.244303e-04
29.080000, -2.168012e-04, 29.090000, 2.550154e-04, 29.100000, 6.413814e-04, 29.110000, 1.356548e-03
29.120000, 2.208498e-03, 29.130000, 2.996801e-03, 29.140000, 3.400296e-03, 29.150000, 4.430979e-03
29.160000, 5.306686e-03, 29.170000, 5.783779e-03, 29.180000, 5.924522e-03, 29.190000, 6.742520e-03
29.200000, 8.427496e-03, 29.210000, 9.756104e-03, 29.220000, 1.040663e-02, 29.230000, 1.161634e-02
29.240000, 1.308469e-02, 29.250000, 1.434115e-02, 29.260000, 1.538446e-02, 29.270000, 1.547040e-02
29.280000, 1.537959e-02, 29.290000, 1.614515e-02, 29.300000, 1.728703e-02, 29.310000, 1.757350e-02
29.320000, 1.771718e-02, 29.330000, 1.823294e-02, 29.340000, 1.800598e-02, 29.350000, 1.742269e-02
29.360000, 1.636383e-02, 29.370000, 1.555137e-02, 29.380000, 1.487941e-02, 29.390000, 1.481112e-02
29.400000, 1.475249e-02, 29.410000, 1.455253e-02, 29.420000, 1.502553e-02, 29.430000, 1.608097e-02
29.440000, 1.708532e-02, 29.450000, 1.791079e-02, 29.460000, 1.841035e-02, 29.470000, 1.894160e-02
29.480000, 1.957918e-02, 29.490000, 1.959612e-02, 29.500000, 1.865385e-02, 29.510000, 1.811298e-02
29.520000, 1.816904e-02, 29.530000, 1.762893e-02, 29.540000, 1.755492e-02, 29.550000, 1.832246e-02
29.560000, 1.986736e-02, 29.570000, 2.238146e-02, 29.580000, 2.467769e-02, 29.590000, 2.689511e-02
29.600000, 2.959743e-02, 29.610000, 3.233952e-02, 29.620000, 3.459568e-02, 29.630000, 3.645845e-02
29.640000, 3.905264e-02, 29.650000, 4.200721e-02, 29.660000, 4.402045e-02, 29.670000, 4.403405e-02
29.680000, 4.400673e-02, 29.690000, 4.465985e-02, 29.700000, 4.515927e-02, 29.710000, 4.365362e-02
29.720000, 4.069663e-02, 29.730000, 3.760477e-02, 29.740000, 3.380244e-02, 29.750000, 2.795842e-02
29.760000, 2.148099e-02, 29.770000, 1.575400e-02, 29.780000, 1.121716e-02, 29.790000, 7.059203e-03
29.800000, 3.373852e-03, 29.810000, -6.407347e-04, 29.820000, -4.069815e-03, 29.830000, -4.587922e-03
29.840000, -5.302362e-03, 29.850000, -7.445140e-03, 29.860000, -8.400868e-03, 29.870000, -8.813498e-03
29.880000, -9.257522e-03, 29.890000, -1.008103e-02, 29.900000, -1.148405e-02, 29.910000, -1.316358e-02
29.920000, -1.302192e-02, 29.930000, -1.290057e-02, 29.940000, -1.299701e-02, 29.950000, -1.301673e-02
29.960000, -1.240789e-02, 29.970000, -9.585997e-03, 29.980000, -8.351218e-03, 29.990000, -7.566026e-03
30.000000, -5.765155e-03, 30.010000, -2.627876e-03, 30.020000, -3.747646e-04, 30.030000, 1.212189e-03
30.040000, 2.430149e-03, 30.050000, 3.696141e-03, 30.060000, 3.628774e-03, 30.070000, 9.717361e-04
30.080000, -2.158638e-03, 30.090000, -5.929384e-03, 30.100000, -8.780529e-03, 30.110000, -1.213481e-02
30.120000, -1.608275e-02, 30.130000, -1.936611e-02, 30.140000, -2.158267e-02, 30.150000, -2.222146e-02
30.160000, -2.316976e-02, 30.170000, -2.493430e-02, 30.180000, -2.614843e-02, 30.190000, -2.617902e-02
30.200000, -2.536170e-02, 30.210000, -2.418956e-02, 30.220000, -2.268468e-02, 30.230000, -2.125351e-02
30.240000, -1.997380e-02, 30.250000, -1.765967e-02, 30.260000, -1.671875e-02, 30.270000, -1.723598e-02
30.280000, -1.714762e-02, 30.290000, -1.693286e-02, 30.300000, -1.728557e-02, 30.310000, -1.757159e-02
30.320000, -1.810840e-02, 30.330000, -1.876190e-02, 30.340000, -1.837413e-02, 30.350000, -1.759602e-02
30.360000, -1.692059e-02, 30.370000, -1.598056e-02, 30.380000, -1.394797e-02, 30.390000, -1.188251e-02
30.400000, -9.692102e-03, 30.410000, -7.474010e-03, 30.420000, -6.898142e-03, 30.430000, -6.423192e-03
30.440000, -5.586831e-03, 30.450000, -5.474040e-03, 30.460000, -5.901481e-03, 30.470000, -7.221812e-03
30.480000, -8.820051e-03, 30.490000, -1.018092e-02, 30.500000, -1.191918e-02, 30.510000, -1.440628e-02
30.520000, -1.714529e-02, 30.530000, -1.911478e-02, 30.540000, -2.039056e-02, 30.550000, -2.185086e-02
30.560000, -2.340605e-02, 30.570000, -2.423416e-02, 30.580000, -2.390165e-02, 30.590000, -2.341448e-02
30.600000, -2.347945e-02, 30.610000, -2.291243e-02, 30.620000, -2.260927e-02, 30.630000, -2.119462e-02
30.640000, -1.893695e-02, 30.650000, -1.803447e-02, 30.660000, -1.725398e-02, 30.670000, -1.540694e-02
30.680000, -1.408507e-02, 30.690000, -1.370278e-02, 30.700000, -1.309254e-02, 30.710000, -1.204373e-02
30.720000, -1.080966e-02, 30.730000, -1.015716e-02, 30.740000, -9.368063e-03, 30.750000, -8.152551e-03
30.760000, -7.216504e-03, 30.770000, -6.779259e-03, 30.780000, -6.363002e-03, 30.790000, -5.682407e-03
30.800000, -5.258457e-03, 30.810000, -5.701085e-03, 30.820000, -5.542037e-03, 30.830000, -4.360529e-03
30.840000, -2.989680e-03, 30.850000, -1.454646e-03, 30.860000, -5.217554e-04, 30.870000, 4.896056e-04
30.880000, 3.078487e-03, 30.890000, 4.641503e-03, 30.900000, 7.010644e-03, 30.910000, 7.988833e-03
30.920000, 9.296195e-03, 30.930000, 1.171152e-02, 30.940000, 1.323821e-02, 30.950000, 1.361441e-02
30.960000, 1.431759e-02, 30.970000, 1.543421e-02, 30.980000, 1.634532e-02, 30.990000, 1.636470e-02
31.000000, 1.601762e-02, 31.010000, 1.546728e-02, 31.020000, 1.508336e-02, 31.030000, 1.466543e-02
31.040000, 1.441962e-02, 31.050000, 1.392879e-02, 31.060000, 1.284306e-02, 31.070000, 1.218922e-02
31.080000, 1.239119e-02, 31.090000, 1.305457e-02, 31.100000, 1.375815e-02, 31.110000, 1.384250e-02
31.120000, 1.390087e-02, 31.130000, 1.448143e-02, 31.140000, 1.458762e-02, 31.150000, 1.446643e-02
31.160000, 1.451139e-02, 31.170000, 1.436297e-02, 31.180000, 1.353671e-02, 31.190000, 1.242049e-02
31.200000, 1.005155e-02, 31.210000, 9.531624e-03, 31.220000, 9.035947e-03, 31.230000, 7.249780e-03
31.240000, 5.943011e-03, 31.250000, 5.806451e-03, 31.260000, 6.531188e-03, 31.270000, 7.977438e-03
31.280000, 9.282521e-03, 31.290000, 1.091137e-02, 31.300000, 1.286527e-02, 31.310000, 1.411804e-02
31.320000, 1.506679e-02, 31.330000, 1.682447e-02, 31.340000, 1.825540e-02, 31.350000, 1.889681e-02
31.360000, 1.912536e-02, 31.370000, 1.926289e-02, 31.380000, 1.978482e-02, 31.390000, 2.023949e-02
31.400000, 1.993876e-02, 31.410000, 1.974329e-02, 31.420000, 2.019816e-02, 31.430000, 1.962288e-02
31.440000, 1.810287e-02, 31.450000, 1.715086e-02, 31.460000, 1.645453e-02, 31.470000, 1.505360e-02
31.480000, 1.255190e-02, 31.490000, 8.877799e-03, 31.500000, 7.234347e-03, 31.510000, 5.108733e-03
31.520000, 3.234815e-03, 31.530000, 1.414997e-03, 31.540000, -7.897353e-04, 31.550000, -2.481879e-03
31.560000, -2.884240e-03, 31.570000, -3.029897e-03, 31.580000, -3.076745e-03, 31.590000, -2.469103e-03
31.600000, -9.043018e-04, 31.610000, 9.370552e-04, 31.620000, 1.862558e-03, 31.630000, 1.804308e-03
31.640000, 2.126553e-03, 31.650000, 2.958313e-03, 31.660000, 3.870599e-03, 31.670000, 3.542251e-03
31.680000, 2.162422e-03, 31.690000, 2.495134e-03, 31.700000, 3.502369e-03, 31.710000, 3.487533e-03
31.720000, 3.088723e-03, 31.730000, 2.607299e-03, 31.740000, 3.686991e-03, 31.750000, 3.890664e-03
31.760000, 2.341989e-03, 31.770000, 1.667663e-03, 31.780000, 1.536045e-03, 31.790000, 1.099354e-03
31.800000, 8.011136e-04, 31.810000, -7.680372e-04, 31.820000, -2.697792e-03, 31.830000, -3.289179e-03
31.840000, -4.033701e-03, 31.850000, -5.209092e-03, 31.860000, -6.631882e-03, 31.870000, -7.939074e-03
31.880000, -8.597636e-03, 31.890000, -9.200629e-03, 31.900000, -1.084987e-02, 31.910000, -1.258896e-02
31.920000, -1.313740e-02, 31.930000, -1.322526e-02, 31.940000, -1.346125e-02, 31.950000, -1.294868e-02
31.960000, -1.167232e-02, 31.970000, -9.021210e-03, 31.980000, -6.493046e-03, 31.990000, -4.685305e-03
32.000000, -2.169030e-03, 32.010000, 2.781150e-04, 32.020000, 2.129330e-03, 32.030000, 3.329825e-03
32.040000, 3.968093e-03, 32.050000, 4.593153e-03, 32.060000, 5.130461e-03, 32.070000, 4.873734e-03
32.080000, 4.084782e-03, 32.090000, 3.680152e-03, 32.100000, 3.397996e-03, 32.110000, 2.658932e-03
32.120000, 2.011254e-03, 32.130000, 1.819915e-03, 32.140000, 2.029881e-03, 32.150000, 1.577927e-03
32.160000, 4.443310e-05, 32.170000, -1.458664e-03, 32.180000, -2.681488e-03, 32.190000, -4.448358e-03
32.200000, -6.494095e-03, 32.210000, -8.322546e-03, 32.220000, -9.823880e-03, 32.230000, -1.154696e-02
32.240000, -1.406006e-02, 32.250000, -1.611599e-02, 32.260000, -1.614614e-02, 32.270000, -1.658625e-02
32.280000, -1.759470e-02, 32.290000, -1.804665e-02, 32.300000, -1.826390e-02, 32.310000, -1.907451e-02
32.320000, -2.006302e-02, 32.330000, -2.069709e-02, 32.340000, -2.081131e-02, 32.350000, -2.072270e-02
32.360000, -2.028424e-02, 32.370000, -1.948934e-02, 32.380000, -1.861008e-02, 32.390000, -1.814623e-02
32.400000, -1.776058e-02, 32.410000, -1.652712e-02, 32.420000, -1.492483e-02, 32.430000, -1.355324e-02
32.440000, -1.259070e-02, 32.450000, -1.207809e-02, 32.460000, -1.176050e-02, 32.470000, -1.137321e-02
32.480000, -1.146493e-02, 32.490000, -1.164490e-02, 32.500000, -1.144553e-02, 32.510000, -1.146299e-02
32.520000, -1.178475e-02, 32.530000, -1.202866e-02, 32.540000, -1.195410e-02, 32.550000, -1.182203e-02
32.560000, -1.136717e-02, 32.570000, -1.134987e-02, 32.580000, -1.118631e-02, 32.590000, -1.045083e-02
32.600000, -9.968422e-03, 32.610000, -8.918215e-03, 32.620000, -8.104575e-03, 32.630000, -6.910300e-03
32.640000, -4.339844e-03, 32.650000, -1.639167e-03, 32.660000, 1.006325e-03, 32.670000, 3.811280e-03
32.680000, 6.167337e-03, 32.690000, 8.902597e-03, 32.700000, 1.221304e-02, 32.710000, 1.533421e-02
32.720000, 1.685611e-02, 32.730000, 1.935903e-02, 32.740000, 2.204361e-02, 32.750000, 2.564034e-02
32.760000, 2.894421e-02, 32.770000, 3.103833e-02, 32.780000, 3.299047e-02, 32.790000, 3.458583e-02
32.800000, 3.575737e-02, 32.810000, 3.632939e-02, 32.820000, 3.547928e-02, 32.830000, 3.473283e-02
32.840000, 3.342703e-02, 32.850000, 3.050849e-02, 32.860000, 2.698885e-02, 32.870000, 2.339533e-02
32.880000, 2.014170e-02, 32.890000, 1.745708e-02, 32.900000, 1.527650e-02, 32.910000, 1.374771e-02
32.920000, 1.243665e-02, 32.930000, 1.199129e-02, 32.940000, 1.196604e-02, 32.950000, 1.261375e-02
32.960000, 1.363113e-02, 32.970000, 1.443483e-02, 32.980000, 1.517847e-02, 32.990000, 1.532287e-02
33.000000, 1.566276e-02, 33.010000, 1.614784e-02, 33.020000, 1.606679e-02, 33.030000, 1.511871e-02
33.040000, 1.352677e-02, 33.050000, 1.226524e-02, 33.060000, 9.832716e-03, 33.070000, 6.850845e-03
33.080000, 4.425986e-03, 33.090000, 2.202174e-03, 33.100000, 7.245885e-05, 33.110000, -1.921542e-03
33.120000, -3.766559e-03, 33.130000, -5.227199e-03, 33.140000, -7.278000e-03, 33.150000, -8.939574e-03
33.160000, -1.042768e-02, 33.170000, -1.207708e-02, 33.180000, -1.396917e-02, 33.190000, -1.577621e-02
33.200000, -1.740530e-02, 33.210000, -1.896031e-02, 33.220000, -2.044962e-02, 33.230000, -2.095731e-02
33.240000, -2.149893e-02, 33.250000, -2.164146e-02, 33.260000, -2.142076e-02, 33.270000, -2.099502e-02
33.280000, -1.986686e-02, 33.290000, -1.813499e-02, 33.300000, -1.578158e-02, 33.310000, -1.311425e-02
33.320000, -9.874712e-03, 33.330000, -8.152840e-03, 33.340000, -5.153394e-03, 33.350000, -2.644008e-03
33.360000, -8.122455e-04, 33.370000, 7.557314e-04, 33.380000, 1.725817e-03, 33.390000, 2.080045e-03
33.400000, 1.858440e-03, 33.410000, 8.050918e-04, 33.420000, -7.256707e-04, 33.430000, -2.442826e-03
33.440000, -4.274839e-03, 33.450000, -6.145386e-03, 33.460000, -6.998814e-03, 33.470000, -6.749661e-03
33.480000, -6.419600e-03, 33.490000, -5.887075e-03, 33.500000, -4.991847e-03, 33.510000, -3.834355e-03
33.520000, -2.029972e-03, 33.530000, -4.772240e-04, 33.540000, 9.968513e-04, 33.550000, 2.748289e-03
33.560000, 4.138822e-03, 33.570000, 4.564063e-03, 33.580000, 4.930950e-03, 33.590000, 5.191582e-03
33.600000, 5.089825e-03, 33.610000, 5.426655e-03, 33.620000, 5.534300e-03, 33.630000, 5.442126e-03
33.640000, 5.569577e-03, 33.650000, 6.047789e-03, 33.660000, 6.631653e-03, 33.670000, 6.726733e-03
33.680000, 6.938524e-03, 33.690000, 7.164048e-03, 33.700000, 7.467570e-03, 33.710000, 8.636647e-03
33.720000, 8.891629e-03, 33.730000, 8.693602e-03, 33.740000, 9.032980e-03, 33.750000, 9.120318e-03
33.760000, 9.004590e-03, 33.770000, 8.861526e-03, 33.780000, 8.347188e-03, 33.790000, 7.840152e-03
33.800000, 7.009403e-03, 33.810000, 5.371493e-03, 33.820000, 3.872437e-03, 33.830000, 1.963998e-03
33.840000, 1.379475e-05, 33.850000, -1.600333e-03, 33.860000, -2.627708e-03, 33.870000, -3.388606e-03
33.880000, -4.207963e-03, 33.890000, -4.808088e-03, 33.900000, -5.396808e-03, 33.910000, -5.658945e-03
33.920000, -6.076712e-03, 33.930000, -6.129797e-03, 33.940000, -5.598875e-03, 33.950000, -5.493271e-03
33.960000, -5.571106e-03, 33.970000, -5.802444e-03, 33.980000, -6.409046e-03, 33.990000, -6.820775e-03
34.000000, -7.673018e-03, 34.010000, -9.470526e-03, 34.020000, -1.079598e-02, 34.030000, -1.208858e-02
34.040000, -1.380900e-02, 34.050000, -1.556672e-02, 34.060000, -1.719251e-02, 34.070000, -1.866446e-02
34.080000, -1.953529e-02, 34.090000, -2.017794e-02, 34.100000, -2.090558e-02, 34.110000, -2.137952e-02
34.120000, -2.095974e-02, 34.130000, -2.010732e-02, 34.140000, -2.004226e-02, 34.150000, -2.049194e-02
34.160000, -1.968928e-02, 34.170000, -1.808825e-02, 34.180000, -1.700129e-02, 34.190000, -1.625349e-02
34.200000, -1.580086e-02, 34.210000, -1.517328e-02, 34.220000, -1.436886e-02, 34.230000, -1.420481e-02
34.240000, -1.396691e-02, 34.250000, -1.304113e-02, 34.260000, -1.153109e-02, 34.270000, -9.557413e-03
34.280000, -7.343291e-03, 34.290000, -4.549216e-03, 34.300000, -2.027823e-03, 34.310000, 9.572034e-05
34.320000, 2.210822e-03, 34.330000, 4.410996e-03, 34.340000, 6.309648e-03, 34.350000, 8.046173e-03
34.360000, 9.447437e-03, 34.370000, 1.006560e-02, 34.380000, 1.069116e-02, 34.390000, 1.107696e-02
34.400000, 1.128020e-02, 34.410000, 1.107474e-02, 34.420000, 1.066430e-02, 34.430000, 1.034613e-02
34.440000, 9.991639e-03, 34.450000, 9.415465e-03, 34.460000, 8.983388e-03, 34.470000, 8.942235e-03
34.480000, 8.872708e-03, 34.490000, 8.580855e-03, 34.500000, 8.439948e-03, 34.510000, 8.233020e-03
34.520000, 7.778261e-03, 34.530000, 7.559965e-03, 34.540000, 7.548099e-03, 34.550000, 7.494297e-03
34.560000, 7.380888e-03, 34.570000, 7.508531e-03, 34.580000, 7.713142e-03, 34.590000, 7.219227e-03
34.600000, 6.891333e-03, 34.610000, 5.866228e-03, 34.620000, 4.811678e-03, 34.630000, 3.652888e-03
34.640000, 1.949457e-03, 34.650000, 9.440645e-04, 34.660000, 7.441234e-05, 34.670000, -7.430490e-04
34.680000, -9.213395e-04, 34.690000, -9.400652e-04, 34.700000, -8.198918e-04, 34.710000, -4.682385e-04
34.720000, -1.970879e-05, 34.730000, -7.295636e-05, 34.740000, -7.346950e-04, 34.750000, -8.428876e-04
34.760000, -7.648325e-04, 34.770000, -1.308424e-03, 34.780000, -2.010141e-03, 34.790000, -3.060389e-03
34.800000, -4.324873e-03, 34.810000, -5.400611e-03, 34.820000, -6.711793e-03, 34.830000, -7.757303e-03
34.840000, -8.389724e-03, 34.850000, -8.562849e-03, 34.860000, -8.718977e-03, 34.870000, -8.581250e-03
34.880000, -8.226824e-03, 34.890000, -7.824647e-03, 34.900000, -7.241037e-03, 34.910000, -6.516760e-03
34.920000, -5.646093e-03, 34.930000, -4.734512e-03, 34.940000, -3.972846e-03, 34.950000, -2.860387e-03
34.960000, -1.936610e-03, 34.970000, -1.057273e-03, 34.980000, -2.088469e-05, 34.990000, 7.929194e-04
35.000000, 1.158592e-03, 35.010000, 9.713110e-04, 35.020000, 3.673357e-04, 35.030000, -2.840214e-04
35.040000, -7.623897e-04, 35.050000, -1.194506e-03, 35.060000, -1.884489e-03, 35.070000, -2.006708e-03
35.080000, -1.861590e-03, 35.090000, -1.927901e-03, 35.100000, -2.518892e-03, 35.110000, -3.061915e-03
35.120000, -2.682779e-03, 35.130000, -2.054652e-03, 35.140000, -2.092446e-03, 35.150000, -2.166777e-03
35.160000, -1.726502e-03, 35.170000, -5.464873e-04, 35.180000, 6.000576e-04, 35.190000, 1.774416e-03
35.200000, 2.979001e-03, 35.210000, 3.778491e-03, 35.220000, 4.404431e-03, 35.230000, 4.253254e-03
35.240000, 3.625869e-03, 35.250000, 3.317017e-03, 35.260000, 2.804984e-03, 35.270000, 2.529352e-03
35.280000, 2.143108e-03, 35.290000, 1.279628e-03, 35.300000, 6.640098e-04, 35.310000, 1.198257e-04
35.320000, -3.894639e-04, 35.330000, -5.994351e-04, 35.340000, -1.048940e-03, 35.350000, -1.138240e-03
35.360000, -1.289799e-03, 35.370000, -1.094404e-03, 35.380000, -2.818821e-04, 35.390000, 1.461713e-04
35.400000, 1.176310e-03, 35.410000, 3.195790e-03, 35.420000, 4.742592e-03, 35.430000, 6.423539e-03
35.440000, 8.419391e-03, 35.450000, 1.026325e-02, 35.460000, 1.098813e-02, 35.470000, 1.277727e-02
35.480000, 1.427728e-02, 35.490000, 1.491959e-02, 35.500000, 1.599898e-02, 35.510000, 1.677913e-02
35.520000, 1.781569e-02, 35.530000, 1.916361e-02, 35.540000, 1.992952e-02, 35.550000, 2.075723e-02
35.560000, 2.151193e-02, 35.570000, 2.182344e-02, 35.580000, 2.200950e-02, 35.590000, 2.255515e-02
35.600000, 2.289603e-02, 35.610000, 2.278014e-02, 35.620000, 2.232646e-02, 35.630000, 2.111321e-02
35.640000, 1.922643e-02, 35.650000, 1.657490e-02, 35.660000, 1.364144e-02, 35.670000, 1.091810e-02
35.680000, 8.101095e-03, 35.690000, 5.690774e-03, 35.700000, 3.368421e-03, 35.710000, 1.208500e-03
35.720000, -2.521188e-04, 35.730000, -6.747473e-04, 35.740000, -7.332403e-04, 35.750000, -4.255942e-04
35.760000, 5.978632e-04, 35.770000, 1.240414e-03, 35.780000, 2.767230e-03, 35.790000, 4.473630e-03
35.800000, 6.025266e-03, 35.810000, 7.797320e-03, 35.820000, 9.731984e-03, 35.830000, 1.042745e-02
35.840000, 1.064564e-02, 35.850000, 1.084779e-02, 35.860000, 1.082149e-02, 35.870000, 1.042655e-02
35.880000, 9.543551e-03, 35.890000, 8.330872e-03, 35.900000, 6.950986e-03, 35.910000, 5.524022e-03
35.920000, 3.593091e-03, 35.930000, 1.351288e-03, 35.940000, -2.861285e-04, 35.950000, -1.997684e-03
35.960000, -3.136179e-03, 35.970000, -4.154466e-03, 35.980000, -5.274260e-03, 35.990000, -6.007147e-03
36.000000, -6.098489e-03, 36.010000, -5.817934e-03, 36.020000, -5.328857e-03, 36.030000, -4.542203e-03
36.040000, -3.735564e-03, 36.050000, -2.793505e-03, 36.060000, -1.813387e-03, 36.070000, -1.128962e-03
36.080000, -8.381640e-04, 36.090000, -3.191390e-04, 36.100000, -9.980565e-05, 36.110000, -2.689502e-04
36.120000, -3.312656e-04, 36.130000, -7.342557e-04, 36.140000, -1.275378e-03, 36.150000, -1.715859e-03
36.160000, -1.325946e-03, 36.170000, -8.233952e-04, 36.180000, -3.881147e-04, 36.190000, 4.458229e-04
36.200000, 1.489732e-03, 36.210000, 2.100603e-03, 36.220000, 2.397540e-03, 36.230000, 3.432994e-03
36.240000, 4.461281e-03, 36.250000, 4.424292e-03, 36.260000, 4.229324e-03, 36.270000, 4.479624e-03
36.280000, 4.691002e-03, 36.290000, 4.936976e-03, 36.300000, 5.415256e-03, 36.310000, 6.449393e-03
36.320000, 6.787757e-03, 36.330000, 6.433157e-03, 36.340000, 6.901383e-03, 36.350000, 8.306942e-03
36.360000, 8.365063e-03, 36.370000, 6.745991e-03, 36.380000, 6.061887e-03, 36.390000, 5.604466e-03
36.400000, 4.893867e-03, 36.410000, 2.468135e-03, 36.420000, -2.929519e-04, 36.430000, -1.807436e-03
36.440000, -3.021307e-03, 36.450000, -5.351672e-03, 36.460000, -7.579259e-03, 36.470000, -8.032256e-03
36.480000, -8.645424e-03, 36.490000, -9.989214e-03, 36.500000, -1.074632e-02, 36.510000, -1.115660e-02
36.520000, -1.145548e-02, 36.530000, -1.137477e-02, 36.540000, -1.172822e-02, 36.550000, -1.265151e-02
36.560000, -1.280633e-02, 36.570000, -1.286124e-02, 36.580000, -1.278417e-02, 36.590000, -1.277664e-02
36.600000, -1.307953e-02, 36.610000, -1.353435e-02, 36.620000, -1.418505e-02, 36.630000, -1.374247e-02
36.640000, -1.294274e-02, 36.650000, -1.247474e-02, 36.660000, -1.242792e-02, 36.670000, -1.235624e-02
36.680000, -1.181133e-02, 36.690000, -1.115408e-02, 36.700000, -1.071737e-02, 36.710000, -1.077376e-02
36.720000, -1.075798e-02, 36.730000, -1.054895e-02, 36.740000, -1.063956e-02, 36.750000, -1.098369e-02
36.760000, -1.106533e-02, 36.770000, -1.137648e-02, 36.780000, -1.143672e-02, 36.790000, -1.150149e-02
36.800000, -1.201343e-02, 36.810000, -1.215563e-02, 36.820000, -1.222144e-02, 36.830000, -1.297491e-02
36.840000, -1.325078e-02, 36.850000, -1.332995e-02, 36.860000, -1.397620e-02, 36.870000, -1.510295e-02
36.880000, -1.563992e-02, 36.890000, -1.603914e-02, 36.900000, -1.681158e-02, 36.910000, -1.762349e-02
36.920000, -1.769354e-02, 36.930000, -1.711863e-02, 36.940000, -1.634496e-02, 36.950000, -1.567897e-02
36.960000, -1.492967e-02, 36.970000, -1.343773e-02, 36.980000, -1.198225e-02, 36.990000, -1.070989e-02
37.000000, -8.908135e-03, 37.010000, -7.821103e-03, 37.020000, -6.783383e-03, 37.030000, -5.808524e-03
37.040000, -5.772428e-03, 37.050000, -5.882642e-03, 37.060000, -5.673141e-03, 37.070000, -5.069085e-03
37.080000, -4.104319e-03, 37.090000, -3.586144e-03, 37.100000, -3.625269e-03, 37.110000, -4.043063e-03
37.120000, -3.465461e-03, 37.130000, -2.045557e-03, 37.140000, -4.053097e-04, 37.150000, 8.643937e-04
37.160000, 8.613649e-04, 37.170000, 6.883536e-04, 37.180000, 2.251573e-03, 37.190000, 3.944939e-03
37.200000, 4.425390e-03, 37.210000, 4.894100e-03, 37.220000, 5.853845e-03, 37.230000, 6.721176e-03
37.240000, 7.933346e-03, 37.250000, 7.388708e-03, 37.260000, 6.974845e-03, 37.270000, 1.025649e-02
37.280000, 1.156540e-02, 37.290000, 1.018297e-02, 37.300000, 9.271937e-03, 37.310000, 1.116146e-02
37.320000, 1.300631e-02, 37.330000, 1.186261e-02, 37.340000, 1.147171e-02, 37.350000, 1.228133e-02
37.360000, 1.386188e-02, 37.370000, 1.459980e-02, 37.380000, 1.345426e-02, 37.390000, 1.388030e-02
37.400000, 1.672823e-02, 37.410000, 1.742924e-02, 37.420000, 1.656381e-02, 37.430000, 1.753288e-02
37.440000, 1.863893e-02, 37.450000, 1.863872e-02, 37.460000, 1.774295e-02, 37.470000, 1.659643e-02
37.480000, 1.707779e-02, 37.490000, 1.741644e-02, 37.500000, 1.554775e-02, 37.510000, 1.351937e-02
37.520000, 1.341120e-02, 37.530000, 1.244078e-02, 37.540000, 1.103666e-02, 37.550000, 9.917172e-03
37.560000, 8.680260e-03, 37.570000, 7.139549e-03, 37.580000, 5.325042e-03, 37.590000, 3.560430e-03
37.600000, 2.138223e-03, 37.610000, 7.871839e-04, 37.620000, -6.470578e-04, 37.630000, -1.918147e-03
37.640000, -3.332839e-03, 37.650000, -3.917933e-03, 37.660000, -4.046595e-03, 37.670000, -3.916337e-03
37.680000, -3.943397e-03, 37.690000, -3.398184e-03, 37.700000, -2.422269e-03, 37.710000, -1.341366e-03
37.720000, 9.459678e-05, 37.730000, 1.121285e-03, 37.740000, 1.847013e-03, 37.750000, 2.868075e-03
37.760000, 2.596281e-03, 37.770000, 2.109140e-03, 37.780000, 2.050714e-03, 37.790000, 1.565909e-03
37.800000, 7.245507e-04, 37.810000, -5.855537e-04, 37.820000, -1.644140e-03, 37.830000, -2.334801e-03
37.840000, -2.761032e-03, 37.850000, -3.751604e-03, 37.860000, -4.810102e-03, 37.870000, -4.604787e-03
37.880000, -3.810276e-03, 37.890000, -3.413417e-03, 37.900000, -3.774908e-03, 37.910000, -3.126203e-03
37.920000, -1.853970e-03, 37.930000, -1.432351e-03, 37.940000, -1.373619e-03, 37.950000, -1.465779e-03
37.960000, -1.796379e-03, 37.970000, -1.177321e-03, 37.980000, -5.260162e-04, 37.990000, -8.847871e-04
38.000000, -2.443438e-04, 38.010000, 3.255811e-04, 38.020000, 5.849597e-04, 38.030000, 8.483586e-04
38.040000, 1.178488e-03, 38.050000, 2.914776e-03, 38.060000, 4.603645e-03, 38.070000, 4.425305e-03
38.080000, 4.574718e-03, 38.090000, 5.588261e-03, 38.100000, 6.231913e-03, 38.110000, 5.917086e-03
38.120000, 5.769079e-03, 38.130000, 5.894606e-03, 38.140000, 6.074945e-03, 38.150000, 5.646817e-03
38.160000, 5.064400e-03, 38.170000, 4.601546e-03, 38.180000, 3.978193e-03, 38.190000, 3.221107e-03
38.200000, 1.689533e-03, 38.210000, 6.404500e-04, 38.220000, 1.796335e-04, 38.230000, -8.306419e-04
38.240000, -1.810548e-03, 38.250000, -2.796129e-03, 38.260000, -3.163572e-03, 38.270000, -3.671195e-03
38.280000, -4.094162e-03, 38.290000, -4.504458e-03, 38.300000, -5.062923e-03, 38.310000, -5.213717e-03
38.320000, -5.327888e-03, 38.330000, -4.857096e-03, 38.340000, -3.950626e-03, 38.350000, -2.823116e-03
38.360000, -1.916865e-03, 38.370000, -1.802995e-03, 38.380000, -1.023737e-03, 38.390000, -2.039240e-04
38.400000, -1.993208e-04, 38.410000, -1.046488e-03, 38.420000, -1.951307e-03, 38.430000, -2.055423e-03
38.440000, -2.824132e-03, 38.450000, -4.010510e-03, 38.460000, -4.774868e-03, 38.470000, -5.451844e-03
38.480000, -5.993162e-03, 38.490000, -6.019951e-03, 38.500000, -6.069231e-03, 38.510000, -6.482835e-03
38.520000, -6.186568e-03, 38.530000, -6.107571e-03, 38.540000, -6.332431e-03, 38.550000, -6.868899e-03
38.560000, -7.398661e-03, 38.570000, -8.099351e-03, 38.580000, -8.330180e-03, 38.590000, -9.578142e-03
38.600000, -1.101224e-02, 38.610000, -1.195309e-02, 38.620000, -1.252157e-02, 38.630000, -1.332122e-02
38.640000, -1.406232e-02, 38.650000, -1.442248e-02, 38.660000, -1.445956e-02, 38.670000, -1.445538e-02
38.680000, -1.415197e-02, 38.690000, -1.365131e-02, 38.700000, -1.380984e-02, 38.710000, -1.306894e-02
38.720000, -1.205225e-02, 38.730000, -1.084627e-02, 38.740000, -9.223196e-03, 38.750000, -8.742756e-03
38.760000, -7.644329e-03, 38.770000, -5.682328e-03, 38.780000, -4.851037e-03, 38.790000, -3.831030e-03
38.800000, -2.848392e-03, 38.810000, -1.355170e-03, 38.820000, 5.426112e-04, 38.830000, 1.369157e-03
38.840000, 2.332429e-03, 38.850000, 3.780858e-03, 38.860000, 4.420869e-03, 38.870000, 5.553394e-03
38.880000, 6.461115e-03, 38.890000, 6.833574e-03, 38.900000, 7.533141e-03, 38.910000, 8.874189e-03
38.920000, 9.156447e-03, 38.930000, 8.967392e-03, 38.940000, 9.261250e-03, 38.950000, 9.757500e-03
38.960000, 1.003681e-02, 38.970000, 9.922065e-03, 38.980000, 9.878040e-03, 38.990000, 1.001281e-02
39.000000, 9.980570e-03, 39.010000, 1.044232e-02, 39.020000, 1.117076e-02, 39.030000, 1.194644e-02
39.040000, 1.284853e-02, 39.050000, 1.360358e-02, 39.060000, 1.406639e-02, 39.070000, 1.404964e-02
39.080000, 1.465727e-02, 39.090000, 1.613551e-02, 39.100000, 1.643835e-02, 39.110000, 1.573994e-02
39.120000, 1.544224e-02, 39.130000, 1.588606e-02, 39.140000, 1.599751e-02, 39.150000, 1.517313e-02
39.160000, 1.534990e-02, 39.170000, 1.559234e-02, 39.180000, 1.493966e-02, 39.190000, 1.311509e-02
39.200000, 1.172917e-02, 39.210000, 1.210339e-02, 39.220000, 1.205959e-02, 39.230000, 1.026869e-02
39.240000, 9.429582e-03, 39.250000, 9.803280e-03, 39.260000, 1.005593e-02, 39.270000, 8.740217e-03
39.280000, 7.922660e-03, 39.290000, 8.643916e-03, 39.300000, 9.240893e-03, 39.310000, 8.341883e-03
39.320000, 6.607995e-03, 39.330000, 6.109501e-03, 39.340000, 6.002344e-03, 39.350000, 4.544685e-03
39.360000, 2.676374e-03, 39.370000, 2.626333e-03, 39.380000, 2.252345e-03, 39.390000, 1.352909e-03
39.400000, 8.803774e-04, 39.410000, 6.792752e-04, 39.420000, 1.109005e-03, 39.430000, 1.283407e-03
39.440000, 1.049921e-03, 39.450000, 9.775484e-04, 39.460000, 7.159334e-04, 39.470000, 3.231955e-04
39.480000, -4.234954e-04, 39.490000, -1.440776e-03, 39.500000, -2.680296e-03, 39.510000, -2.743241e-03
39.520000, -3.627276e-03, 39.530000, -5.526666e-03, 39.540000, -7.087527e-03, 39.550000, -7.775531e-03
39.560000, -8.305200e-03, 39.570000, -9.749595e-03, 39.580000, -1.087059e-02, 39.590000, -1.080675e-02
39.600000, -1.132687e-02, 39.610000, -1.203150e-02, 39.620000, -1.294059e-02, 39.630000, -1.346401e-02
39.640000, -1.385099e-02, 39.650000, -1.402349e-02, 39.660000, -1.380444e-02, 39.670000, -1.396188e-02
39.680000, -1.372232e-02, 39.690000, -1.261861e-02, 39.700000, -1.133900e-02, 39.710000, -1.143710e-02
39.720000, -1.133917e-02, 39.730000, -9.277798e-03, 39.740000, -7.217186e-03, 39.750000, -6.088768e-03
39.760000, -5.522967e-03, 39.770000, -4.746521e-03, 39.780000, -1.781145e-03, 39.790000, 2.613168e-04
39.800000, 1.486133e-04, 39.810000, 4.914975e-04, 39.820000, 1.603912e-03, 39.830000, 2.065301e-03
39.840000, 1.517302e-03, 39.850000, 1.027069e-03, 39.860000, 2.345228e-03, 39.870000, 4.018349e-03
39.880000, 3.968918e-03, 39.890000, 3.490510e-03, 39.900000, 3.519245e-03, 39.910000, 3.698174e-03
39.920000, 3.076227e-03, 39.930000, 1.201185e-03, 39.940000, -9.904319e-04, 39.950000, -3.224821e-03
39.960000, -6.130607e-03, 39.970000, -9.424833e-03, 39.980000, -1.020614e-02, 39.990000, -9.919812e-03
40.000000, -1.044592e-02, 40.010000, -1.045016e-02, 40.020000, -9.703603e-03, 40.030000, -8.895804e-03
40.040000, -8.630019e-03, 40.050000, -7.290107e-03, 40.060000, -4.994942e-03, 40.070000, -3.010798e-03
40.080000, -2.031538e-03, 40.090000, -6.908092e-04, 40.100000, 2.371904e-04, 40.110000, 1.974906e-03
40.120000, 4.269789e-03, 40.130000, 5.921540e-03, 40.140000, 6.351939e-03, 40.150000, 7.412973e-03
40.160000, 8.525564e-03, 40.170000, 8.217414e-03, 40.180000, 7.043559e-03, 40.190000, 6.861488e-03
40.200000, 7.272385e-03, 40.210000, 7.345501e-03, 40.220000, 6.808972e-03, 40.230000, 5.550915e-03
40.240000, 4.734024e-03, 40.250000, 4.655759e-03, 40.260000, 3.789877e-03, 40.270000, 2.552108e-03
40.280000, 2.252233e-03, 40.290000, 2.669234e-03, 40.300000, 2.942610e-03, 40.310000, 2.288562e-03
40.320000, 1.004013e-03, 40.330000, 2.832456e-04, 40.340000, -5.111380e-04, 40.350000, -1.862022e-03
40.360000, -3.005530e-03, 40.370000, -2.806131e-03, 40.380000, -1.882191e-03, 40.390000, -1.157616e-03
40.400000, 3.055417e-04, 40.410000, 1.333316e-03, 40.420000, 2.179166e-03, 40.430000, 3.270114e-03
40.440000, 4.087158e-03, 40.450000, 3.654037e-03, 40.460000, 3.363207e-03, 40.470000, 4.024529e-03
40.480000, 3.676215e-03, 40.490000, 2.095147e-03, 40.500000, 1.721418e-03, 40.510000, 2.246073e-03
40.520000, 1.959803e-03, 40.530000, 9.772319e-04, 40.540000, -3.083120e-04, 40.550000, -9.086435e-04
40.560000, -1.499453e-03, 40.570000, -3.177502e-03, 40.580000, -4.950735e-03, 40.590000, -5.694253e-03
40.600000, -5.368137e-03, 40.610000, -5.381507e-03, 40.620000, -5.622748e-03, 40.630000, -4.140341e-03
40.640000, -2.129360e-03, 40.650000, -4.606677e-04, 40.660000, 6.244110e-04, 40.670000, 1.767773e-03
40.680000, 3.210154e-03, 40.690000, 3.535908e-03, 40.700000, 4.326627e-03, 40.710000, 5.045550e-03
40.720000, 5.604164e-03, 40.730000, 6.186542e-03, 40.740000, 6.789716e-03, 40.750000, 7.570516e-03
40.760000, 7.980017e-03, 40.770000, 7.909359e-03, 40.780000, 8.771872e-03, 40.790000, 9.629402e-03
40.800000, 9.107631e-03, 40.810000, 8.464893e-03, 40.820000, 8.448523e-03, 40.830000, 8.392006e-03
40.840000, 8.316322e-03, 40.850000, 7.529365e-03, 40.860000, 6.740977e-03, 40.870000, 6.260185e-03
40.880000, 5.279893e-03, 40.890000, 4.009534e-03, 40.900000, 2.893687e-03, 40.910000, 1.629259e-03
40.920000, 9.803512e-04, 40.930000, -4.155999e-04, 40.940000, -2.504661e-03, 40.950000, -4.135126e-03
40.960000, -4.766698e-03, 40.970000, -4.646916e-03, 40.980000, -4.292864e-03, 40.990000, -4.318511e-03
41.000000, -4.336084e-03, 41.010000, -3.799851e-03, 41.020000, -3.245421e-03, 41.030000, -4.140156e-03
41.040000, -4.757214e-03, 41.050000, -5.240990e-03, 41.060000, -6.070030e-03, 41.070000, -6.854023e-03
41.080000, -7.541363e-03, 41.090000, -7.520206e-03, 41.100000, -7.306061e-03, 41.110000, -6.890854e-03
41.120000, -6.449682e-03, 41.130000, -5.996840e-03, 41.140000, -5.767403e-03, 41.150000, -5.984882e-03
41.160000, -6.387284e-03, 41.170000, -6.332427e-03, 41.180000, -6.217779e-03, 41.190000, -6.482993e-03
41.200000, -6.699019e-03, 41.210000, -6.515137e-03, 41.220000, -5.385572e-03, 41.230000, -4.625158e-03
41.240000, -4.638928e-03, 41.250000, -4.100148e-03, 41.260000, -4.111882e-03, 41.270000, -4.634773e-03
41.280000, -4.919310e-03, 41.290000, -5.433831e-03, 41.300000, -5.846961e-03, 41.310000, -6.734240e-03
41.320000, -7.823536e-03, 41.330000, -8.327177e-03, 41.340000, -8.665966e-03, 41.350000, -7.449054e-03
41.360000, -6.644523e-03, 41.370000, -5.647170e-03, 41.380000, -4.307606e-03, 41.390000, -3.360338e-03
41.400000, -3.034960e-03, 41.410000, -3.551995e-03, 41.420000, -4.352899e-03, 41.430000, -5.106145e-03
41.440000, -5.145840e-03, 41.450000, -5.176106e-03, 41.460000, -6.015579e-03, 41.470000, -7.476274e-03
41.480000, -9.629440e-03, 41.490000, -1.095461e-02, 41.500000, -1.250232e-02, 41.510000, -1.402671e-02
41.520000, -1.411358e-02, 41.530000, -1.379028e-02, 41.540000, -1.293923e-02, 41.550000, -1.196509e-02
41.560000, -1.055876e-02, 41.570000, -8.607450e-03, 41.580000, -7.005394e-03, 41.590000, -5.991156e-03
41.600000, -5.614709e-03, 41.610000, -5.471789e-03, 41.620000, -5.176081e-03, 41.630000, -4.939601e-03
41.640000, -4.624859e-03, 41.650000, -4.460049e-03, 41.660000, -3.935290e-03, 41.670000, -3.418971e-03
41.680000, -2.474969e-03, 41.690000, -7.686973e-04, 41.700000, 1.057265e-03, 41.710000, 2.397462e-03
41.720000, 3.029133e-03, 41.730000, 3.875621e-03, 41.740000, 4.677043e-03, 41.750000, 5.073007e-03
41.760000, 5.015387e-03, 41.770000, 5.264920e-03, 41.780000, 5.030006e-03, 41.790000, 4.397504e-03
41.800000, 4.116093e-03, 41.810000, 3.795804e-03, 41.820000, 3.912407e-03, 41.830000, 3.665567e-03
41.840000, 2.898432e-03, 41.850000, 2.516454e-03, 41.860000, 2.433434e-03, 41.870000, 2.387752e-03
41.880000, 2.224266e-03, 41.890000, 2.534187e-03, 41.900000, 2.619256e-03, 41.910000, 3.188398e-03
41.920000, 4.429016e-03, 41.930000, 6.084745e-03, 41.940000, 8.044003e-03, 41.950000, 8.987979e-03
41.960000, 1.076934e-02, 41.970000, 1.219926e-02, 41.980000, 1.282568e-02, 41.990000, 1.333432e-02
42.000000, 1.408062e-02, 42.010000, 1.449306e-02, 42.020000, 1.470365e-02, 42.030000, 1.443583e-02
42.040000, 1.433056e-02, 42.050000, 1.375814e-02, 42.060000, 1.295295e-02, 42.070000, 1.200934e-02
42.080000, 1.106480e-02, 42.090000, 1.114704e-02, 42.100000, 1.136314e-02, 42.110000, 1.111014e-02
42.120000, 1.134445e-02, 42.130000, 1.173381e-02, 42.140000, 1.151287e-02, 42.150000, 1.091249e-02
42.160000, 1.031650e-02, 42.170000, 1.056871e-02, 42.180000, 1.078089e-02, 42.190000, 1.013565e-02
42.200000, 9.562466e-03, 42.210000, 9.977319e-03, 42.220000, 1.024797e-02, 42.230000, 9.559177e-03
42.240000, 8.781630e-03, 42.250000, 8.570816e-03, 42.260000, 7.857140e-03, 42.270000, 7.464375e-03
42.280000, 6.958778e-03, 42.290000, 6.248731e-03, 42.300000, 5.849885e-03, 42.310000, 5.635864e-03
42.320000, 5.251744e-03, 42.330000, 4.053540e-03, 42.340000, 3.130017e-03, 42.350000, 2.747309e-03
42.360000, 2.219787e-03, 42.370000, 1.594147e-03, 42.380000, 1.011614e-03, 42.390000, 4.715710e-04
42.400000, -2.283391e-04, 42.410000, -9.079159e-04, 42.420000, -1.360846e-03, 42.430000, -1.914890e-03
42.440000, -2.599387e-03, 42.450000, -3.073566e-03, 42.460000, -3.257603e-03, 42.470000, -3.643790e-03
42.480000, -3.928051e-03, 42.490000, -4.195606e-03, 42.500000, -4.150259e-03, 42.510000, -3.877131e-03
42.520000, -3.850101e-03, 42.530000, -3.857255e-03, 42.540000, -4.180447e-03, 42.550000, -4.576834e-03
42.560000, -5.178853e-03, 42.570000, -5.874171e-03, 42.580000, -6.785727e-03, 42.590000, -6.973674e-03
42.600000, -6.905934e-03, 42.610000, -7.459308e-03, 42.620000, -7.858573e-03, 42.630000, -7.434502e-03
42.640000, -6.778494e-03, 42.650000, -6.494740e-03, 42.660000, -6.028203e-03, 42.670000, -5.649038e-03
42.680000, -5.117756e-03, 42.690000, -4.916121e-03, 42.700000, -5.294258e-03, 42.710000, -5.233699e-03
42.720000, -5.594843e-03, 42.730000, -6.165639e-03, 42.740000, -7.163484e-03, 42.750000, -8.137087e-03
42.760000, -8.493466e-03, 42.770000, -8.391408e-03, 42.780000, -8.252421e-03, 42.790000, -7.959904e-03
42.800000, -7.407398e-03, 42.810000, -6.534470e-03, 42.820000, -5.339168e-03, 42.830000, -4.372763e-03
42.840000, -3.242206e-03, 42.850000, -2.122887e-03, 42.860000, -1.882301e-03, 42.870000, -1.593399e-03
42.880000, -9.942211e-04, 42.890000, -4.701463e-04, 42.900000, -6.829587e-04, 42.910000, -9.680282e-04
42.920000, -7.779816e-04, 42.930000, -5.958632e-04, 42.940000, -4.805302e-04, 42.950000, -9.446326e-04
42.960000, -1.429824e-03, 42.970000, -1.252625e-03, 42.980000, -1.345588e-03, 42.990000, -1.478309e-03
43.000000, -1.119583e-03, 43.010000, -1.057165e-03, 43.020000, -5.924547e-04, 43.030000, 2.397245e-04
43.040000, 6.057640e-04, 43.050000, 8.519126e-04, 43.060000, 1.207343e-03, 43.070000, 2.057482e-03
43.080000, 2.816879e-03, 43.090000, 3.608618e-03, 43.100000, 4.438703e-03, 43.110000, 5.325989e-03
43.120000, 6.096216e-03, 43.130000, 6.591735e-03, 43.140000, 6.887063e-03, 43.150000, 7.313522e-03
43.160000, 7.578671e-03, 43.170000, 7.549243e-03, 43.180000, 7.048082e-03, 43.190000, 6.757390e-03
43.200000, 6.355645e-03, 43.210000, 5.433072e-03, 43.220000, 4.853916e-03, 43.230000, 4.179580e-03
43.240000, 3.454199e-03, 43.250000, 2.552818e-03, 43.260000, 1.789188e-03, 43.270000, 1.194947e-03
43.280000, 4.325852e-04, 43.290000, -2.444658e-04, 43.300000, -1.266321e-03, 43.310000, -2.213025e-03
43.320000, -2.329497e-03, 43.330000, -2.513016e-03, 43.340000, -2.493661e-03, 43.350000, -1.900898e-03
43.360000, -1.560032e-03, 43.370000, -9.712460e-04, 43.380000, -3.223713e-04, 43.390000, 1.739687e-04
43.400000, 5.684935e-04, 43.410000, 8.070267e-04, 43.420000, 1.021043e-03, 43.430000, 1.094605e-03
43.440000, 9.940009e-04, 43.450000, 7.036595e-04, 43.460000, 6.531589e-04, 43.470000, 6.276393e-04
43.480000, 5.229222e-04, 43.490000, 5.276688e-04, 43.500000, 6.290694e-04, 43.510000, 1.319571e-03
43.520000, 1.700243e-03, 43.530000, 1.506740e-03, 43.540000, 1.466208e-03, 43.550000, 1.109418e-03
43.560000, 5.622830e-04, 43.570000, -9.065424e-05, 43.580000, -6.563397e-04, 43.590000, -1.049965e-03
43.600000, -1.172084e-03, 43.610000, -1.296031e-03, 43.620000, -1.361871e-03, 43.630000, -1.287568e-03
43.640000, -9.095186e-04, 43.650000, -5.127263e-04, 43.660000, -2.063089e-04, 43.670000, 1.904732e-04
43.680000, 2.414752e-04, 43.690000, -4.387893e-05, 43.700000, -2.637022e-04, 43.710000, -6.246147e-04
43.720000, -7.117007e-04, 43.730000, -4.850821e-04, 43.740000, -7.884126e-04, 43.750000, -9.202859e-04
43.760000, -4.874505e-04, 43.770000, -3.356329e-04, 43.780000, 1.291728e-05, 43.790000, 1.923290e-04
43.800000, 5.268971e-04, 43.810000, 1.251420e-03, 43.820000, 1.476638e-03, 43.830000, 1.563869e-03
43.840000, 1.772310e-03, 43.850000, 2.180785e-03, 43.860000, 2.541478e-03, 43.870000, 2.593575e-03
43.880000, 3.095701e-03, 43.890000, 3.251506e-03, 43.900000, 2.933389e-03, 43.910000, 2.624599e-03
43.920000, 2.351272e-03, 43.930000, 1.760191e-03, 43.940000, 1.179222e-03, 43.950000, 5.262407e-04
43.960000, -1.757773e-04, 43.970000, -8.197652e-04, 43.980000, -1.045198e-03, 43.990000, -1.339602e-03
44.000000, -1.856585e-03, 44.010000, -2.652091e-03, 44.020000, -3.415746e-03, 44.030000, -3.762056e-03
44.040000, -4.502263e-03, 44.050000, -5.939035e-03, 44.060000, -7.162810e-03, 44.070000, -7.774715e-03
44.080000, -8.576892e-03, 44.090000, -8.847871e-03, 44.100000, -9.246819e-03, 44.110000, -9.526891e-03
44.120000, -9.136197e-03, 44.130000, -8.371178e-03, 44.140000, -7.940604e-03, 44.150000, -7.767644e-03
44.160000, -6.685348e-03, 44.170000, -5.429667e-03, 44.180000, -4.731699e-03, 44.190000, -4.144449e-03
44.200000, -3.360036e-03, 44.210000, -2.523805e-03, 44.220000, -1.883176e-03, 44.230000, -1.127790e-03
44.240000, 2.096782e-04, 44.250000, 1.159698e-03, 44.260000, 1.739648e-03, 44.270000, 2.552292e-03
44.280000, 2.952213e-03, 44.290000, 3.371625e-03, 44.300000, 3.844594e-03, 44.310000, 3.999548e-03
44.320000, 4.192434e-03, 44.330000, 4.387398e-03, 44.340000, 4.686140e-03, 44.350000, 4.348651e-03
44.360000, 4.059001e-03, 44.370000, 4.044235e-03, 44.380000, 3.975761e-03, 44.390000, 3.971264e-03
44.400000, 3.110907e-03, 44.410000, 1.496347e-03, 44.420000, 8.399800e-04, 44.430000, 6.547680e-04
44.440000, 1.427808e-04, 44.450000, -1.059857e-03, 44.460000, -2.716944e-03, 44.470000, -3.441085e-03
44.480000, -4.001100e-03, 44.490000, -4.997278e-03, 44.500000, -6.090160e-03, 44.510000, -7.071634e-03
44.520000, -6.825003e-03, 44.530000, -7.487675e-03, 44.540000, -7.298394e-03, 44.550000, -6.680143e-03
44.560000, -6.748627e-03, 44.570000, -6.645500e-03, 44.580000, -5.369864e-03, 44.590000, -3.339089e-03
44.600000, -3.148053e-03, 44.610000, -2.878450e-03, 44.620000, -1.685679e-03, 44.630000, -1.322072e-03
44.640000, -9.043610e-04, 44.650000, -2.066185e-04, 44.660000, 1.199499e-04, 44.670000, -7.671890e-04
44.680000, -5.396387e-04, 44.690000, 4.680927e-04, 44.700000, 2.925160e-04, 44.710000, -1.865411e-04
44.720000, 8.110689e-04, 44.730000, 2.198609e-03, 44.740000, 2.389114e-03, 44.750000, 2.752632e-03
44.760000, 2.881974e-03, 44.770000, 3.256755e-03, 44.780000, 2.371869e-03, 44.790000, 2.060661e-03
44.800000, 2.297787e-03, 44.810000, 2.281475e-03, 44.820000, -2.251809e-04, 44.830000, -2.258867e-03
44.840000, -2.020949e-03, 44.850000, -3.189915e-03, 44.860000, -4.941456e-03, 44.870000, -4.610087e-03
44.880000, -2.584274e-03, 44.890000, -5.954922e-04, 44.900000, 5.228513e-04, 44.910000, 1.184536e-03
44.920000, 1.991755e-03, 44.930000, 2.192487e-03, 44.940000, 3.596975e-03, 44.950000, 4.870024e-03
44.960000, 4.164060e-03, 44.970000, 3.012096e-03, 44.980000, 2.506449e-03, 44.990000, 2.661632e-03
45.000000, 3.210191e-03, 45.010000, 3.043229e-03, 45.020000, 2.695777e-03, 45.030000, 3.274604e-03
45.040000, 4.139063e-03, 45.050000, 3.181161e-03, 45.060000, 2.317404e-03, 45.070000, 2.658314e-03
45.080000, 1.580994e-03, 45.090000, 7.584723e-04, 45.100000, -2.604101e-04, 45.110000, -2.576458e-03
45.120000, -2.960767e-03, 45.130000, -2.550382e-03, 45.140000, -4.420935e-03, 45.150000, -5.534803e-03
45.160000, -4.797622e-03, 45.170000, -5.943136e-03, 45.180000, -7.077951e-03, 45.190000, -6.398980e-03
45.200000, -5.500308e-03, 45.210000, -6.163863e-03, 45.220000, -5.984628e-03, 45.230000, -4.435627e-03
45.240000, -2.972368e-03, 45.250000, -2.918588e-03, 45.260000, -3.062880e-03, 45.270000, -2.149984e-03
45.280000, -2.826850e-04, 45.290000, 3.269700e-04, 45.300000, -5.440869e-04, 45.310000, -2.358712e-03
45.320000, -2.849989e-03, 45.330000, -3.705963e-03, 45.340000, -4.558753e-03, 45.350000, -5.578781e-03
45.360000, -6.215473e-03, 45.370000, -5.895060e-03, 45.380000, -6.204957e-03, 45.390000, -7.634124e-03
45.400000, -7.155444e-03, 45.410000, -6.951633e-03, 45.420000, -7.968153e-03, 45.430000, -8.820303e-03
45.440000, -9.315525e-03, 45.450000, -8.325378e-03, 45.460000, -7.680568e-03, 45.470000, -7.619132e-03
45.480000, -7.311942e-03, 45.490000, -7.409284e-03, 45.500000, -7.712919e-03, 45.510000, -6.960110e-03
45.520000, -5.980148e-03, 45.530000, -5.622047e-03, 45.540000, -4.446702e-03, 45.550000, -3.884241e-03
45.560000, -4.221652e-03, 45.570000, -3.275204e-03, 45.580000, -1.740574e-03, 45.590000, -1.030841e-03
45.600000, -8.089242e-04, 45.610000, -8.921093e-04, 45.620000, -1.430666e-03, 45.630000, -1.823888e-03
45.640000, -1.827350e-03, 45.650000, -2.659419e-03, 45.660000, -3.514691e-03, 45.670000, -3.353013e-03
45.680000, -3.284596e-03, 45.690000, -3.115168e-03, 45.700000, -3.761175e-03, 45.710000, -4.596099e-03
45.720000, -3.417430e-03, 45.730000, -2.109956e-03, 45.740000, -5.925813e-04, 45.750000, 8.775613e-04
45.760000, 2.544109e-03, 45.770000, 4.484783e-03, 45.780000, 5.474359e-03, 45.790000, 6.279693e-03
45.800000, 8.352800e-03, 45.810000, 1.029562e-02, 45.820000, 1.109804e-02, 45.830000, 1.171288e-02
45.840000, 1.281846e-02, 45.850000, 1.412234e-02, 45.860000, 1.415572e-02, 45.870000, 1.347550e-02
45.880000, 1.395232e-02, 45.890000, 1.403157e-02, 45.900000, 1.209409e-02, 45.910000, 1.079848e-02
45.920000, 9.979583e-03, 45.930000, 1.099854e-02, 45.940000, 9.788488e-03, 45.950000, 7.748712e-03
45.960000, 7.100843e-03, 45.970000, 7.785303e-03, 45.980000, 7.862426e-03, 45.990000, 7.752313e-03
46.000000, 7.812092e-03, 46.010000, 8.238669e-03, 46.020000, 7.707336e-03, 46.030000, 6.702643e-03
46.040000, 5.207270e-03, 46.050000, 3.375146e-03, 46.060000, 2.856123e-03, 46.070000, 2.497780e-03
46.080000, 1.389066e-03, 46.090000, 8.622033e-04, 46.100000, 2.318778e-03, 46.110000, 3.796281e-03
46.120000, 3.529308e-03, 46.130000, 3.968397e-03, 46.140000, 5.875605e-03, 46.150000, 7.328253e-03
46.160000, 6.849732e-03, 46.170000, 5.893885e-03, 46.180000, 5.937801e-03, 46.190000, 5.872625e-03
46.200000, 5.097564e-03, 46.210000, 4.118995e-03, 46.220000, 2.120479e-03, 46.230000, 1.502425e-03
46.240000, 1.658362e-03, 46.250000, 1.857907e-03, 46.260000, 1.399693e-03, 46.270000, 1.517314e-03
46.280000, 1.960789e-03, 46.290000, 1.784424e-03, 46.300000, 1.059359e-03, 46.310000, 1.470986e-03
46.320000, 1.929402e-03, 46.330000, 3.314883e-04, 46.340000, -1.208568e-03, 46.350000, -4.444041e-04
46.360000, 8.066207e-04, 46.370000, -8.613819e-04, 46.380000, -4.496460e-03, 46.390000, -5.168801e-03
46.400000, -3.521981e-03, 46.410000, -3.781188e-03, 46.420000, -5.887213e-03, 46.430000, -4.305705e-03
46.440000, -2.346573e-03, 46.450000, -4.309570e-03, 46.460000, -6.240315e-03, 46.470000, -5.801784e-03
46.480000, -5.046971e-03, 46.490000, -5.489319e-03, 46.500000, -7.309775e-03, 46.510000, -7.706017e-03
46.520000, -6.593047e-03, 46.530000, -7.285697e-03, 46.540000, -8.619048e-03, 46.550000, -7.090402e-03
46.560000, -5.568674e-03, 46.570000, -5.414572e-03, 46.580000, -4.711722e-03, 46.590000, -3.638704e-03
46.600000, -3.732251e-03, 46.610000, -3.784654e-03, 46.620000, -3.502985e-03, 46.630000, -4.085588e-03
46.640000, -3.977389e-03, 46.650000, -4.240790e-03, 46.660000, -4.073594e-03, 46.670000, -4.260621e-03
46.680000, -4.652633e-03, 46.690000, -3.634356e-03, 46.700000, -2.091287e-03, 46.710000, -1.839529e-03
46.720000, -2.434767e-03, 46.730000, -1.778760e-03, 46.740000, -1.079153e-03, 46.750000, -1.113570e-03
46.760000, -8.976388e-04, 46.770000, 3.675908e-04, 46.780000, 1.362756e-03, 46.790000, 1.117300e-03
46.800000, 1.078938e-03, 46.810000, 1.698468e-03, 46.820000, 1.942581e-03, 46.830000, 2.160148e-03
46.840000, 2.162932e-03, 46.850000, 2.789632e-03, 46.860000, 3.294599e-03, 46.870000, 3.299833e-03
46.880000, 3.441509e-03, 46.890000, 4.788830e-03, 46.900000, 5.245212e-03, 46.910000, 5.363205e-03
46.920000, 6.261745e-03, 46.930000, 7.039817e-03, 46.940000, 6.150190e-03, 46.950000, 5.558751e-03
46.960000, 5.477512e-03, 46.970000, 5.910705e-03, 46.980000, 6.091033e-03, 46.990000, 5.441847e-03
47.000000, 3.959941e-03, 47.010000, 2.549076e-03, 47.020000, 1.565228e-03, 47.030000, 6.467971e-04
47.040000, 5.025198e-04, 47.050000, 6.659782e-04, 47.060000, 1.287711e-03, 47.070000, 3.129707e-03
47.080000, 6.304374e-03, 47.090000, 1.059615e-02, 47.100000, 1.563272e-02, 47.110000, 1.998389e-02
47.120000, 2.224607e-02, 47.130000, 2.289761e-02, 47.140000, 2.350049e-02, 47.150000, 2.118611e-02
47.160000, 1.740371e-02, 47.170000, 1.346136e-02, 47.180000, 7.800803e-03, 47.190000, 1.745290e-03
47.200000, -3.224015e-03, 47.210000, -6.795051e-03, 47.220000, -7.559757e-03, 47.230000, -6.100295e-03
47.240000, -3.186998e-03, 47.250000, 2.086596e-03, 47.260000, 7.510978e-03, 47.270000, 1.166091e-02
47.280000, 1.567412e-02, 47.290000, 1.822598e-02, 47.300000, 1.856358e-02, 47.310000, 1.838765e-02
47.320000, 1.644027e-02, 47.330000, 1.299753e-02, 47.340000, 8.372601e-03, 47.350000, 2.818077e-03
47.360000, -2.311685e-03, 47.370000, -6.667071e-03, 47.380000, -9.638853e-03, 47.390000, -9.998867e-03
47.400000, -9.072393e-03, 47.410000, -7.602597e-03, 47.420000, -5.237313e-03, 47.430000, -3.684914e-03
47.440000, -1.776003e-03, 47.450000, -2.674009e-05, 47.460000, 9.662204e-04, 47.470000, 1.862897e-04
47.480000, -1.318114e-03, 47.490000, -2.652514e-03, 47.500000, -3.618285e-03, 47.510000, -4.745137e-03
47.520000, -6.525220e-03, 47.530000, -7.417135e-03, 47.540000, -9.678040e-03, 47.550000, -1.213107e-02
47.560000, -1.295048e-02, 47.570000, -1.272346e-02, 47.580000, -1.249122e-02, 47.590000, -1.164840e-02
47.600000, -1.041496e-02, 47.610000, -9.085414e-03, 47.620000, -8.601340e-03, 47.630000, -8.582417e-03
47.640000, -8.410958e-03, 47.650000, -7.790748e-03, 47.660000, -7.292269e-03, 47.670000, -8.288152e-03
47.680000, -9.718853e-03, 47.690000, -1.110521e-02, 47.700000, -1.236280e-02, 47.710000, -1.330652e-02
47.720000, -1.446293e-02, 47.730000, -1.425133e-02, 47.740000, -1.374883e-02, 47.750000, -1.290686e-02
47.760000, -1.189611e-02, 47.770000, -1.074470e-02, 47.780000, -9.991680e-03, 47.790000, -8.792398e-03
47.800000, -8.689571e-03, 47.810000, -9.299881e-03, 47.820000, -9.166505e-03, 47.830000, -9.516232e-03
47.840000, -9.538506e-03, 47.850000, -9.456143e-03, 47.860000, -8.809589e-03, 47.870000, -9.039367e-03
47.880000, -8.850411e-03, 47.890000, -7.966207e-03, 47.900000, -8.443286e-03, 47.910000, -8.998638e-03
47.920000, -9.026699e-03, 47.930000, -9.364806e-03, 47.940000, -9.305604e-03, 47.950000, -1.073005e-02
47.960000, -1.211097e-02, 47.970000, -1.271370e-02, 47.980000, -1.382188e-02, 47.990000, -1.445566e-02
48.000000, -1.410914e-02, 48.010000, -1.343570e-02, 48.020000, -1.230497e-02, 48.030000, -1.082105e-02
48.040000, -9.496801e-03, 48.050000, -7.607198e-03, 48.060000, -6.442465e-03, 48.070000, -3.991259e-03
48.080000, -1.510429e-03, 48.090000, -6.757325e-05, 48.100000, 1.164928e-03, 48.110000, 2.131997e-03
48.120000, 2.472370e-03, 48.130000, 2.925372e-03, 48.140000, 3.188685e-03, 48.150000, 2.894415e-03
48.160000, 2.451029e-03, 48.170000, 1.933190e-03, 48.180000, 1.172371e-03, 48.190000, 1.553166e-03
48.200000, 1.706160e-03, 48.210000, 1.613629e-03, 48.220000, 1.987588e-03, 48.230000, 2.192214e-03
48.240000, 2.767262e-03, 48.250000, 2.620580e-03, 48.260000, 2.369925e-03, 48.270000, 3.004703e-03
48.280000, 4.136215e-03, 48.290000, 4.288239e-03, 48.300000, 3.987514e-03, 48.310000, 5.110161e-03
48.320000, 6.541558e-03, 48.330000, 7.135859e-03, 48.340000, 8.113760e-03, 48.350000, 9.261330e-03
48.360000, 9.792386e-03, 48.370000, 1.077757e-02, 48.380000, 1.094296e-02, 48.390000, 1.067298e-02
48.400000, 1.039422e-02, 48.410000, 9.482399e-03, 48.420000, 8.319552e-03, 48.430000, 6.782260e-03
48.440000, 5.365040e-03, 48.450000, 4.243350e-03, 48.460000, 3.267335e-03, 48.470000, 3.223981e-03
48.480000, 3.842894e-03, 48.490000, 5.282770e-03, 48.500000, 7.134603e-03, 48.510000, 9.044357e-03
48.520000, 1.049545e-02, 48.530000, 1.155261e-02, 48.540000, 1.296018e-02, 48.550000, 1.420465e-02
48.560000, 1.500847e-02, 48.570000, 1.605770e-02, 48.580000, 1.794221e-02, 48.590000, 1.937231e-02
48.600000, 1.946794e-02, 48.610000, 1.916867e-02, 48.620000, 1.860959e-02, 48.630000, 1.647725e-02
48.640000, 1.308363e-02, 48.650000, 8.755798e-03, 48.660000, 6.224047e-03, 48.670000, 1.959518e-03
48.680000, -8.926229e-04, 48.690000, -2.206974e-03, 48.700000, -2.069436e-03, 48.710000, -3.035565e-03
48.720000, -1.594725e-03, 48.730000, 3.397261e-03, 48.740000, 6.319505e-03, 48.750000, 9.578291e-03
48.760000, 1.388291e-02, 48.770000, 1.621567e-02, 48.780000, 1.810803e-02, 48.790000, 1.989103e-02
48.800000, 1.921089e-02, 48.810000, 1.879240e-02, 48.820000, 1.810527e-02, 48.830000, 1.587984e-02
48.840000, 1.433850e-02, 48.850000, 1.304043e-02, 48.860000, 1.052915e-02, 48.870000, 9.795881e-03
48.880000, 9.095973e-03, 48.890000, 5.987596e-03, 48.900000, 4.625661e-03, 48.910000, 4.642400e-03
48.920000, 4.003217e-03, 48.930000, 3.973157e-03, 48.940000, 4.165666e-03, 48.950000, 3.885085e-03
48.960000, 4.370636e-03, 48.970000, 4.693399e-03, 48.980000, 4.571899e-03, 48.990000, 5.682436e-03
49.000000, 8.163922e-03, 49.010000, 9.845594e-03, 49.020000, 1.130718e-02, 49.030000, 1.284791e-02
49.040000, 1.319441e-02, 49.050000, 1.235005e-02, 49.060000, 1.291304e-02, 49.070000, 1.298220e-02
49.080000, 1.114491e-02, 49.090000, 1.008412e-02, 49.100000, 8.411254e-03, 49.110000, 6.150975e-03
49.120000, 4.354227e-03, 49.130000, 2.516715e-03, 49.140000, 5.881912e-04, 49.150000, -4.354417e-04
49.160000, -1.946211e-03, 49.170000, -5.093469e-03, 49.180000, -6.906423e-03, 49.190000, -7.534736e-03
49.200000, -9.480760e-03, 49.210000, -1.204803e-02, 49.220000, -1.450385e-02, 49.230000, -1.591107e-02
49.240000, -1.786137e-02, 49.250000, -1.980267e-02, 49.260000, -2.050116e-02, 49.270000, -2.075841e-02
49.280000, -2.076748e-02, 49.290000, -1.925710e-02, 49.300000, -1.846834e-02, 49.310000, -1.657522e-02
49.320000, -1.474546e-02, 49.330000, -1.412748e-02, 49.340000, -1.269026e-02, 49.350000, -1.236040e-02
49.360000, -1.299037e-02, 49.370000, -1.311016e-02, 49.380000, -1.375201e-02, 49.390000, -1.478153e-02
49.400000, -1.608476e-02, 49.410000, -1.622811e-02, 49.420000, -1.650761e-02, 49.430000, -1.720465e-02
49.440000, -1.705837e-02, 49.450000, -1.717287e-02, 49.460000, -1.714951e-02, 49.470000, -1.752773e-02
49.480000, -1.829053e-02, 49.490000, -1.764265e-02, 49.500000, -1.696191e-02, 49.510000, -1.626782e-02
49.520000, -1.591959e-02, 49.530000, -1.491795e-02, 49.540000, -1.393683e-02, 49.550000, -1.342875e-02
49.560000, -1.218364e-02, 49.570000, -1.129059e-02, 49.580000, -9.651145e-03, 49.590000, -7.688390e-03
49.600000, -5.921152e-03, 49.610000, -4.366593e-03, 49.620000, -3.669011e-03, 49.630000, -3.519188e-03
49.640000, -3.014804e-03, 49.650000, -2.754232e-03, 49.660000, -2.921692e-03, 49.670000, -4.243102e-03
49.680000, -5.360779e-03, 49.690000, -6.325224e-03, 49.700000, -7.154733e-03, 49.710000, -7.627369e-03
49.720000, -7.889908e-03, 49.730000, -7.851516e-03, 49.740000, -6.960135e-03, 49.750000, -5.634508e-03
49.760000, -4.926676e-03, 49.770000, -4.929105e-03, 49.780000, -3.907370e-03, 49.790000, -2.380957e-03
49.800000, -1.803655e-03, 49.810000, -2.147663e-03, 49.820000, -1.904710e-03, 49.830000, -9.736373e-04
49.840000, -4.085923e-04, 49.850000, -7.588293e-04, 49.860000, -1.012086e-03, 49.870000, -2.048593e-04
49.880000, 1.854419e-04, 49.890000, 1.996740e-05, 49.900000, -2.616745e-04, 49.910000, -1.502545e-04
49.920000, 4.099143e-04, 49.930000, 9.832192e-04, 49.940000, 3.416593e-04, 49.950000, -1.482075e-04
49.960000, 6.421794e-04, 49.970000, 1.459901e-03, 49.980000, 1.223621e-03, 49.990000, 8.715881e-04
50.000000, 1.645026e-03, 50.010000, 3.017860e-03, 50.020000, 2.975956e-03, 50.030000, 2.435764e-03
50.040000, 2.679018e-03, 50.050000, 3.184787e-03, 50.060000, 3.301677e-03, 50.070000, 2.406182e-03
50.080000, 1.330170e-03, 50.090000, 1.411287e-03, 50.100000, 1.595729e-03, 50.110000, 1.353847e-03
50.120000, 1.442275e-03, 50.130000, 2.070862e-03, 50.140000, 3.077071e-03, 50.150000, 4.232549e-03
50.160000, 4.581611e-03, 50.170000, 4.325797e-03, 50.180000, 4.659532e-03, 50.190000, 6.170072e-03
50.200000, 6.769415e-03, 50.210000, 5.852455e-03, 50.220000, 5.470975e-03, 50.230000, 5.497247e-03
50.240000, 5.768169e-03, 50.250000, 5.981321e-03, 50.260000, 5.784969e-03, 50.270000, 5.765849e-03
50.280000, 5.241682e-03, 50.290000, 5.414370e-03, 50.300000, 5.153205e-03, 50.310000, 5.146607e-03
50.320000, 5.218283e-03, 50.330000, 5.509558e-03, 50.340000, 6.589375e-03, 50.350000, 7.595933e-03
50.360000, 8.201126e-03, 50.370000, 9.004346e-03, 50.380000, 9.673437e-03, 50.390000, 9.909517e-03
50.400000, 1.069729e-02, 50.410000, 1.110429e-02, 50.420000, 1.070384e-02, 50.430000, 1.057056e-02
50.440000, 1.105406e-02, 50.450000, 1.047887e-02, 50.460000, 9.405112e-03, 50.470000, 9.361083e-03
50.480000, 9.471997e-03, 50.490000, 8.932721e-03, 50.500000, 7.309378e-03, 50.510000, 6.887548e-03
50.520000, 6.865096e-03, 50.530000, 5.914936e-03, 50.540000, 5.974666e-03, 50.550000, 6.600732e-03
50.560000, 6.937134e-03, 50.570000, 7.391007e-03, 50.580000, 8.900879e-03, 50.590000, 1.023163e-02
50.600000, 1.073001e-02, 50.610000, 1.162579e-02, 50.620000, 1.244575e-02, 50.630000, 1.285969e-02
50.640000, 1.286563e-02, 50.650000, 1.195774e-02, 50.660000, 1.144175e-02, 50.670000, 1.057049e-02
50.680000, 9.391413e-03, 50.690000, 8.888409e-03, 50.700000, 7.443327e-03, 50.710000, 6.622291e-03
50.720000, 6.507738e-03, 50.730000, 5.120683e-03, 50.740000, 3.484188e-03, 50.750000, 2.559677e-03
50.760000, 1.161495e-03, 50.770000, -2.414337e-04, 50.780000, -1.984163e-03, 50.790000, -3.109589e-03
50.800000, -4.434877e-03, 50.810000, -5.426846e-03, 50.820000, -6.654793e-03, 50.830000, -7.572576e-03
50.840000, -8.478095e-03, 50.850000, -8.958627e-03, 50.860000, -8.200966e-03, 50.870000, -7.857023e-03
50.880000, -7.986847e-03, 50.890000, -8.146324e-03, 50.900000, -6.981511e-03, 50.910000, -6.127510e-03
50.920000, -6.657370e-03, 50.930000, -7.092309e-03, 50.940000, -7.252251e-03, 50.950000, -6.489764e-03
50.960000, -6.087255e-03, 50.970000, -6.777536e-03, 50.980000, -7.629181e-03, 50.990000, -7.341101e-03
51.000000, -6.454188e-03, 51.010000, -6.272820e-03, 51.020000, -7.231542e-03, 51.030000, -7.573411e-03
51.040000, -6.425057e-03, 51.050000, -5.666821e-03, 51.060000, -5.420826e-03, 51.070000, -5.634043e-03
51.080000, -5.284465e-03, 51.090000, -4.442893e-03, 51.100000, -4.499747e-03, 51.110000, -5.337706e-03
51.120000, -5.610793e-03, 51.130000, -5.304137e-03, 51.140000, -5.419789e-03, 51.150000, -4.559903e-03
51.160000, -3.559496e-03, 51.170000, -2.786357e-03, 51.180000, -1.761542e-03, 51.190000, -4.416627e-04
51.200000, 7.056698e-04, 51.210000, 1.242557e-03, 51.220000, 1.130507e-03, 51.230000, 9.091628e-04
51.240000, 1.269988e-03, 51.250000, 9.427061e-04, 51.260000, -5.889189e-05, 51.270000, -5.707784e-04
51.280000, -9.953030e-04, 51.290000, -1.483324e-03, 51.300000, -1.851391e-03, 51.310000, -3.030933e-03
51.320000, -3.740645e-03, 51.330000, -3.683272e-03, 51.340000, -3.595509e-03, 51.350000, -4.303272e-03
51.360000, -4.146749e-03, 51.370000, -3.837350e-03, 51.380000, -3.680062e-03, 51.390000, -3.301716e-03
51.400000, -3.016755e-03, 51.410000, -2.812945e-03, 51.420000, -2.284169e-03, 51.430000, -1.892709e-03
51.440000, -1.609785e-03, 51.450000, -8.287477e-04, 51.460000, -4.282426e-04, 51.470000, 1.519068e-04
51.480000, 1.217446e-03, 51.490000, 1.146583e-03, 51.500000, 1.406085e-03, 51.510000, 1.678091e-03
51.520000, 1.727027e-03, 51.530000, 1.619366e-03, 51.540000, 8.363244e-04, 51.550000, 2.872704e-04
51.560000, 5.033343e-04, 51.570000, 1.196578e-04, 51.580000, -5.954397e-04, 51.590000, -3.633380e-04
51.600000, -1.951018e-04, 51.610000, -3.452773e-04, 51.620000, -8.554282e-04, 51.630000, -1.305677e-03
51.640000, -2.002211e-03, 51.650000, -2.143507e-03, 51.660000, -1.851722e-03, 51.670000, -1.380194e-03
51.680000, -9.420828e-04, 51.690000, -5.522191e-04, 51.700000, 7.136206e-04, 51.710000, 1.328357e-03
51.720000, 1.973874e-03, 51.730000, 2.661489e-03, 51.740000, 3.418247e-03, 51.750000, 4.008425e-03
51.760000, 4.561253e-03, 51.770000, 4.992440e-03, 51.780000, 4.858062e-03, 51.790000, 4.624135e-03
51.800000, 4.967515e-03, 51.810000, 4.341043e-03, 51.820000, 2.866703e-03, 51.830000, 1.830076e-03
51.840000, 1.380736e-03, 51.850000, 9.822163e-04, 51.860000, -3.463972e-04, 51.870000, -1.429629e-03
51.880000, -1.581831e-03, 51.890000, -1.583272e-03, 51.900000, -1.805007e-03, 51.910000, -2.486235e-03
51.920000, -2.923585e-03, 51.930000, -2.805230e-03, 51.940000, -2.550998e-03, 51.950000, -2.193288e-03
51.960000, -1.614526e-03, 51.970000, -9.568889e-04, 51.980000, -2.887674e-04, 51.990000, -2.787521e-04
52.000000, -2.501175e-04, 52.010000, 4.871140e-04, 52.020000, 9.492550e-04, 52.030000, 1.812439e-03
52.040000, 2.335306e-03, 52.050000, 2.726763e-03, 52.060000, 3.284866e-03, 52.070000, 3.212714e-03
52.080000, 2.823940e-03, 52.090000, 2.456625e-03, 52.100000, 2.189547e-03, 52.110000, 2.232522e-03
52.120000, 1.895192e-03, 52.130000, 1.096380e-03, 52.140000, 7.878603e-04, 52.150000, 5.867121e-04
52.160000, -9.298730e-05, 52.170000, -3.140434e-04, 52.180000, -2.303130e-05, 52.190000, 6.616021e-05
52.200000, -6.015536e-05, 52.210000, -2.359629e-04, 52.220000, -8.876273e-04, 52.230000, -8.951457e-04
52.240000, -9.000834e-04, 52.250000, -1.572941e-03, 52.260000, -1.896157e-03, 52.270000, -1.812628e-03
52.280000, -2.135614e-03, 52.290000, -2.556899e-03, 52.300000, -2.795732e-03, 52.310000, -2.926961e-03
52.320000, -2.784267e-03, 52.330000, -2.512404e-03, 52.340000, -2.332352e-03, 52.350000, -2.665439e-03
52.360000, -2.230147e-03, 52.370000, -1.673724e-03, 52.380000, -1.660846e-03, 52.390000, -1.540071e-03
52.400000, -1.604876e-03, 52.410000, -1.669177e-03, 52.420000, -1.316819e-03, 52.430000, -1.535206e-03
52.440000, -1.813975e-03, 52.450000, -1.600008e-03, 52.460000, -1.020816e-03, 52.470000, -9.625070e-04
52.480000, -1.103306e-03, 52.490000, -6.707736e-04, 52.500000, -9.119881e-05, 52.510000, -4.217602e-05
52.520000, 9.375326e-06, 52.530000, -1.929042e-04, 52.540000, -1.665487e-04, 52.550000, 2.626531e-04
52.560000, 3.202678e-05, 52.570000, 1.258402e-04, 52.580000, 5.966970e-04, 52.590000, 8.952023e-04
52.600000, 1.162192e-03, 52.610000, 1.452679e-03, 52.620000, 1.756528e-03, 52.630000, 1.773626e-03
52.640000, 1.947755e-03, 52.650000, 2.420776e-03, 52.660000, 2.638411e-03, 52.670000, 2.587327e-03
52.680000, 2.624994e-03, 52.690000, 2.601699e-03, 52.700000, 2.713400e-03, 52.710000, 2.657494e-03
52.720000, 2.429223e-03, 52.730000, 2.311990e-03, 52.740000, 2.559081e-03, 52.750000, 2.801622e-03
52.760000, 2.862446e-03, 52.770000, 3.201098e-03, 52.780000, 3.392515e-03, 52.790000, 3.514097e-03
52.800000, 3.591914e-03, 52.810000, 3.143343e-03, 52.820000, 2.711299e-03, 52.830000, 2.342258e-03
52.840000, 1.659085e-03, 52.850000, 1.118405e-03, 52.860000, 1.130401e-03, 52.870000, 8.091705e-04
52.880000, 7.104039e-04, 52.890000, 9.100746e-04, 52.900000, 9.165176e-04, 52.910000, 1.330761e-03
52.920000, 1.610244e-03, 52.930000, 1.811797e-03, 52.940000, 1.958943e-03, 52.950000, 2.216461e-03
52.960000, 2.111511e-03, 52.970000, 1.962994e-03, 52.980000, 2.123748e-03, 52.990000, 2.217003e-03
53.000000, 2.159349e-03, 53.010000, 2.339854e-03, 53.020000, 2.073962e-03, 53.030000, 1.936957e-03
53.040000, 2.084183e-03, 53.050000, 1.944911e-03, 53.060000, 2.056223e-03, 53.070000, 2.333055e-03
53.080000, 2.235563e-03, 53.090000, 2.117670e-03, 53.100000, 2.050419e-03, 53.110000, 1.718683e-03
53.120000, 1.226630e-03, 53.130000, 1.138484e-03, 53.140000, 1.343376e-03, 53.150000, 1.320447e-03
53.160000, 1.006013e-03, 53.170000, 8.513830e-04, 53.180000, 1.038662e-03, 53.190000, 8.147504e-04
53.200000, 3.761483e-04, 53.210000, 2.212983e-04, 53.220000, -2.463643e-04, 53.230000, -8.722634e-04
53.240000, -1.070977e-03, 53.250000, -1.374263e-03, 53.260000, -1.398528e-03, 53.270000, -1.447886e-03
53.280000, -1.886401e-03, 53.290000, -2.092582e-03, 53.300000, -2.217352e-03, 53.310000, -2.494579e-03
53.320000, -2.410476e-03, 53.330000, -2.582337e-03, 53.340000, -2.621089e-03, 53.350000, -2.476824e-03
53.360000, -2.758107e-03, 53.370000, -3.033092e-03, 53.380000, -2.808252e-03, 53.390000, -2.696502e-03
53.400000, -2.960692e-03, 53.410000, -2.767413e-03, 53.420000, -2.719696e-03, 53.430000, -3.133118e-03
53.440000, -3.189871e-03, 53.450000, -3.060500e-03, 53.460000, -3.380235e-03, 53.470000, -3.198917e-03
53.480000, -3.119165e-03, 53.490000, -3.333702e-03, 53.500000, -3.089006e-03, 53.510000, -3.124594e-03
53.520000, -2.836311e-03, 53.530000, -2.308721e-03, 53.540000, -2.167584e-03, 53.550000, -2.174089e-03
53.560000, -2.104683e-03, 53.570000, -2.065328e-03, 53.580000, -2.235977e-03, 53.590000, -2.033887e-03
53.600000, -2.014493e-03, 53.610000, -2.039607e-03, 53.620000, -1.768212e-03, 53.630000, -1.782230e-03
53.640000, -1.739886e-03, 53.650000, -1.488502e-03, 53.660000, -1.060004e-03, 53.670000, -6.076697e-04
53.680000, -5.590289e-04, 53.690000, -2.317411e-04, 53.700000, 5.387438e-05, 53.710000, -9.551441e-05
53.720000, -5.700122e-05, 53.730000, -1.250243e-05, 53.740000, 7.666157e-05, 53.750000, 3.614551e-05
53.760000, -3.776328e-05, 53.770000, 3.184467e-05, 53.780000, 1.114685e-04, 53.790000, 9.262598e-05
53.800000, 2.049325e-04, 53.810000, 3.669176e-04, 53.820000, 4.572424e-04, 53.830000, 4.337738e-04
53.840000, 6.014877e-04, 53.850000, 6.180576e-04, 53.860000, 4.454330e-04, 53.870000, 4.997606e-04
53.880000, 5.706926e-04, 53.890000, 4.686983e-04, 53.900000, 4.743424e-04, 53.910000, 4.138133e-04
53.920000, 3.378307e-04, 53.930000, 4.596762e-04, 53.940000, 4.165276e-04, 53.950000, 1.942757e-04
53.960000, 1.777710e-04, 53.970000, 1.621257e-04, 53.980000, 1.147471e-04, 53.990000, 1.438951e-04
54.000000, -2.580388e-05, 54.010000, -1.449850e-04, 54.020000, -1.245999e-04, 54.030000, -2.931161e-04
54.040000, -3.974821e-04, 54.050000, -3.129841e-04, 54.060000, -3.284672e-04, 54.070000, -4.025394e-04
54.080000, -3.674482e-04, 54.090000, -3.897348e-04, 54.100000, -3.907774e-04, 54.110000, -3.067873e-04
54.120000, -3.410350e-04, 54.130000, -3.163237e-04, 54.140000, -2.281745e-04, 54.150000, -1.986400e-04
54.160000, -1.679433e-04, 54.170000, -8.201414e-05, 54.180000, 4.423452e-06, 54.190000, 4.198256e-05
54.200000, 1.190398e-04, 54.210000, 1.238617e-04, 54.220000, 1.078992e-04, 54.230000, 1.913311e-04
54.240000, 2.898686e-04, 54.250000, 3.167433e-04, 54.260000, 3.669253e-04, 54.270000, 4.164903e-04
54.280000, 3.874253e-04, 54.290000, 4.012081e-04, 54.300000, 3.524023e-04, 54.310000, 3.217101e-04
54.320000, 3.250162e-04, 54.330000, 2.832753e-04, 54.340000, 2.777430e-04, 54.350000, 2.531748e-04
54.360000, 2.376262e-04, 54.370000, 2.382380e-04, 54.380000, 2.393874e-04, 54.390000, 2.602757e-04
54.400000, 3.017816e-04, 54.410000, 3.231453e-04, 54.420000, 3.343998e-04, 54.430000, 3.381848e-04
54.440000, 3.578005e-04, 54.450000, 3.605712e-04, 54.460000, 3.572118e-04, 54.470000, 3.872312e-04
54.480000, 4.639231e-04, 54.490000, 4.950429e-04, 54.500000, 4.865379e-04, 54.510000, 4.860441e-04
54.520000, 5.176501e-04, 54.530000, 5.243896e-04, 54.540000, 5.237412e-04, 54.550000, 5.450767e-04
54.560000, 5.345641e-04, 54.570000, 5.387757e-04, 54.580000, 5.381475e-04, 54.590000, 5.285364e-04
54.600000, 5.284651e-04, 54.610000, 5.211302e-04, 54.620000, 5.123622e-04, 54.630000, 4.686199e-04
54.640000, 4.108757e-04, 54.650000, 3.592868e-04, 54.660000, 3.068604e-04, 54.670000, 2.488717e-04
54.680000, 2.153540e-04, 54.690000, 1.973342e-04, 54.700000, 1.559607e-04, 54.710000, 1.226437e-04
54.720000, 1.179560e-04, 54.730000, 1.016355e-04, 54.740000, 8.093916e-05, 54.750000, 8.139430e-05
54.760000, 8.406223e-05, 54.770000, 8.819199e-05, 54.780000, 9.693848e-05, 54.790000, 1.080406e-04
54.800000, 1.225255e-04, 54.810000, 1.563755e-04, 54.820000, 1.743376e-04, 54.830000, 1.827868e-04
54.840000, 2.222444e-04, 54.850000, 2.570961e-04, 54.860000, 2.584635e-04, 54.870000, 2.734984e-04
54.880000, 2.865476e-04, 54.890000, 2.907950e-04, 54.900000, 2.940172e-04, 54.910000, 2.934173e-04
54.920000, 2.881397e-04, 54.930000, 2.687582e-04, 54.940000, 2.447355e-04, 54.950000, 2.370410e-04
54.960000, 2.401706e-04, 54.970000, 2.264211e-04, 54.980000, 2.165904e-04, 54.990000, 2.178134e-04
55.000000, 2.226755e-04, 55.010000, 2.306483e-04, 55.020000, 2.297034e-04, 55.030000, 2.266482e-04
55.040000, 2.269355e-04, 55.050000, 2.245335e-04, 55.060000, 2.171294e-04, 55.070000, 2.100692e-04
55.080000, 2.041196e-04, 55.090000, 1.980198e-04, 55.100000, 1.843807e-04, 55.110000, 1.729096e-04
55.120000, 1.633379e-04, 55.130000, 1.561537e-04, 55.140000, 1.536551e-04, 55.150000, 1.459645e-04
55.160000, 1.411317e-04, 55.170000, 1.350338e-04, 55.180000, 1.325689e-04, 55.190000, 1.349403e-04
55.200000, 1.297271e-04, 55.210000, 1.250927e-04, 55.220000, 1.228531e-04, 55.230000, 1.187215e-04
55.240000, 1.124554e-04, 55.250000, 1.071085e-04, 55.260000, 1.025899e-04, 55.270000, 9.580975e-05
55.280000, 8.789972e-05, 55.290000, 8.075142e-05, 55.300000, 7.499430e-05, 55.310000, 6.946987e-05
55.320000, 6.549619e-05, 55.330000, 6.309106e-05, 55.340000, 5.891223e-05, 55.350000, 5.507344e-05
55.360000, 5.169688e-05, 55.370000, 4.555025e-05, 55.380000, 3.884076e-05, 55.390000, 3.327459e-05
55.400000, 2.772025e-05, 55.410000, 2.220727e-05, 55.420000, 1.694598e-05, 55.430000, 1.199861e-05
55.440000, 6.993631e-06, 55.450000, 1.409840e-06, 55.460000, -4.520980e-06, 55.470000, -1.055364e-05
55.480000, -1.590520e-05, 55.490000, -2.130902e-05, 55.500000, -2.676269e-05, 55.510000, -3.156046e-05
55.520000, -3.593627e-05, 55.530000, -3.983631e-05, 55.540000, -4.354198e-05, 55.550000, -4.676786e-05
55.560000, -4.952603e-05, 55.570000, -5.217337e-05, 55.580000, -5.518095e-05, 55.590000, -5.842485e-05
55.600000, -6.156606e-05, 55.610000, -6.467481e-05, 55.620000, -6.767572e-05, 55.630000, -7.053250e-05
55.640000, -7.319610e-05, 55.650000, -7.570754e-05, 55.660000, -7.821065e-05, 55.670000, -8.065978e-05
55.680000, -8.299321e-05, 55.690000, -8.522659e-05, 55.700000, -8.737201e-05, 55.710000, -8.941308e-05
55.720000, -9.139114e-05, 55.730000, -9.330228e-05, 55.740000, -9.513958e-05, 55.750000, -9.691961e-05
55.760000, -9.862800e-05, 55.770000, -1.002581e-04, 55.780000, -1.018150e-04, 55.790000, -1.033056e-04
55.800000, -1.047320e-04, 55.810000, -1.060982e-04, 55.820000, -1.074050e-04, 55.830000, -1.086526e-04
55.840000, -1.098417e-04, 55.850000, -1.109728e-04, 55.860000, -1.120467e-04, 55.870000, -1.130640e-04
55.880000, -1.140251e-04, 55.890000, -1.149305e-04
*STEP, INC=100000
*DYNAMIC, DIRECT, ALPHA=0.0, BETA=0.25, GAMMA=0.5
0.01, 55.9, 0.01, 0.01
*DLOAD, AMPLITUDE=EQACCEL
EALL, GRAV, 9.80665, -1., 0., 0.
*NODE FILE
U
*NODE PRINT, NSET=NTOPMID
U
*END STEP
